# 
# Keywords:
# 
conp opti  
# 
# Options:
# 
cartesian 
S     core 2.7940492 -8.479372 -8.607767 -1.7528240 1.00000 0.00000             
S     core -2.584536 -4.128649 -9.281524 -1.7528240 1.00000 0.00000             
Pb    core -1.545523 -6.769767 -9.020728 1.75282400 1.00000 0.00000             
Pb    core -2.647474 -2.784561 -11.73035 1.75282400 1.00000 0.00000             
Pb    core -2.687337 -2.686446 23.753395 1.75282400 1.00000 0.00000             
S     core -3.027977 -9.309316 -3.130577 -1.7528240 1.00000 0.00000             
Pb    core -5.869032 -8.744722 -2.922871 1.75282400 1.00000 0.00000             
Pb    core -2.430209 -12.01673 -2.578081 1.75282400 1.00000 0.00000             
Pb    core -2.732663 -8.608578 -5.899269 1.75282400 1.00000 0.00000             
Pb    core -2.050021 -11.02615 16.577796 1.75282400 1.00000 0.00000             
Pb    core -1.831776 19.363362 -8.206055 1.75282400 1.00000 0.00000             
S     core -8.638990 3.4256082 -9.208039 -1.7528240 1.00000 0.00000             
S     core -7.618389 -4.790648 -7.788938 -1.7528240 1.00000 0.00000             
Pb    core -7.581807 -5.150335 -5.041633 1.75282400 1.00000 0.00000             
Pb    core -7.647979 -2.045789 -7.765453 1.75282400 1.00000 0.00000             
Pb    core -8.998735 -2.516892 17.224319 1.75282400 1.00000 0.00000             
S     core -8.994064 -8.578340 3.1234904 -1.7528240 1.00000 0.00000             
Pb    core -8.397427 11.727241 -9.098958 1.75282400 1.00000 0.00000             
Pb    core -8.728901 20.629026 -0.054842 1.75282400 1.00000 0.00000             
Pb    core 10.317776 -10.59968 -8.071250 1.75282400 1.00000 0.00000             
Pb    core 17.340807 -3.454095 -8.264661 1.75282400 1.00000 0.00000             
Pb    core 16.544681 -10.49029 -1.783905 1.75282400 1.00000 0.00000             
S     core 8.3688316 -8.909735 -8.876920 -1.7528240 1.00000 0.00000             
Pb    core 5.6079559 -8.621036 -8.773813 1.75282400 1.00000 0.00000             
S     core 2.7286172 4.0839996 -14.62843 -1.7528240 1.00000 0.00000             
S     core 2.9688647 -2.855347 -8.812872 -1.7528240 1.00000 0.00000             
S     core -1.830399 -9.365752 -8.426063 -1.7528240 1.00000 0.00000             
S     core 3.3035890 -5.544192 -11.81963 -1.7528240 1.00000 0.00000             
S     core 0.0366689 -2.603078 -11.71996 -1.7528240 1.00000 0.00000             
Pb    core 0.1484555 -2.668215 -8.905798 1.75282400 1.00000 0.00000             
Pb    core 3.1834785 -5.748725 -9.081215 1.75282400 1.00000 0.00000             
Pb    core 2.9532304 -2.792787 -11.96879 1.75282400 1.00000 0.00000             
S     core 3.2838807 -5.637211 23.984979 -1.7528240 1.00000 0.00000             
S     core -0.059758 -2.570917 23.761126 -1.7528240 1.00000 0.00000             
Pb    core 2.8668830 -2.880189 23.896616 1.75282400 1.00000 0.00000             
S     core 3.0828547 -8.684623 -2.864923 -1.7528240 1.00000 0.00000             
S     core 0.2654913 -11.86154 -2.667485 -1.7528240 1.00000 0.00000             
S     core 3.1206674 -11.44226 -6.082528 -1.7528240 1.00000 0.00000             
S     core 0.1463587 -8.468460 -5.639991 -1.7528240 1.00000 0.00000             
Pb    core 0.1576678 -8.871690 -2.864384 1.75282400 1.00000 0.00000             
Pb    core 3.0557667 -11.61867 -3.152399 1.75282400 1.00000 0.00000             
Pb    core 3.0602408 -8.578893 -5.750997 1.75282400 1.00000 0.00000             
Pb    core 0.8286298 -10.34214 -7.724680 1.75282400 1.00000 0.00000             
S     core 3.0554019 -9.004639 20.602710 -1.7528240 1.00000 0.00000             
S     core 2.8307771 -11.56693 17.867106 -1.7528240 1.00000 0.00000             
S     core -1.327678 -10.16220 19.092563 -1.7528240 1.00000 0.00000             
Pb    core -2.091109 -7.597827 19.849134 1.75282400 1.00000 0.00000             
Pb    core 3.0595894 -8.634478 17.780522 1.75282400 1.00000 0.00000             
Pb    core 1.1922925 -10.91936 20.011274 1.75282400 1.00000 0.00000             
S     core 2.3184177 -14.79383 2.7127076 -1.7528240 1.00000 0.00000             
Pb    core -0.361870 -14.57253 3.2986337 1.75282400 1.00000 0.00000             
Pb    core 3.2434669 -14.72724 0.1385877 1.75282400 1.00000 0.00000             
Pb    core 3.3505897 -14.78021 11.771161 1.75282400 1.00000 0.00000             
Pb    core 3.8067456 11.960510 -14.90017 1.75282400 1.00000 0.00000             
S     core 4.0079932 21.076775 -8.696019 -1.7528240 1.00000 0.00000             
S     core -0.209818 19.924993 -10.36551 -1.7528240 1.00000 0.00000             
S     core 3.5969574 18.071202 -11.79228 -1.7528240 1.00000 0.00000             
Pb    core 1.4944397 21.706562 -9.246069 1.75282400 1.00000 0.00000             
Pb    core 3.7430604 18.152257 -8.894470 1.75282400 1.00000 0.00000             
Pb    core 0.8727291 18.227222 -12.22775 1.75282400 1.00000 0.00000             
S     core 3.0251542 17.978157 23.630431 -1.7528240 1.00000 0.00000             
S     core 0.4276806 23.892055 -2.725538 -1.7528240 1.00000 0.00000             
S     core 2.9307376 23.779651 -5.693270 -1.7528240 1.00000 0.00000             
Pb    core 3.2260738 23.818753 -2.755628 1.75282400 1.00000 0.00000             
S     core 3.4682537 23.635823 18.056990 -1.7528240 1.00000 0.00000             
S     core -2.854128 3.1240252 -8.865683 -1.7528240 1.00000 0.00000             
S     core -5.785173 -0.125128 -8.948314 -1.7528240 1.00000 0.00000             
S     core -3.168941 -0.051289 -11.75719 -1.7528240 1.00000 0.00000             
S     core -5.494362 3.2940375 -11.95196 -1.7528240 1.00000 0.00000             
Pb    core -5.893120 3.2361833 -8.896349 1.75282400 1.00000 0.00000             
Pb    core -2.940162 0.3194188 -8.843934 1.75282400 1.00000 0.00000             
Pb    core -2.715053 3.0012286 -11.85270 1.75282400 1.00000 0.00000             
Pb    core -6.002447 0.7008288 -11.57974 1.75282400 1.00000 0.00000             
S     core -3.428303 0.0177863 23.756431 -1.7528240 1.00000 0.00000             
S     core -5.819587 3.2389247 23.747249 -1.7528240 1.00000 0.00000             
Pb    core -2.969461 3.2275528 23.761216 1.75282400 1.00000 0.00000             
Pb    core -6.191433 0.5999235 23.901709 1.75282400 1.00000 0.00000             
S     core -2.803664 -2.907789 -3.017056 -1.7528240 1.00000 0.00000             
S     core -5.303137 -6.996212 -4.953945 -1.7528240 1.00000 0.00000             
S     core -2.341642 -5.773311 -6.327086 -1.7528240 1.00000 0.00000             
S     core -5.585752 -2.907025 -5.734260 -1.7528240 1.00000 0.00000             
Pb    core -5.640103 -2.612071 -2.895480 1.75282400 1.00000 0.00000             
Pb    core -2.859924 -5.888763 -3.214856 1.75282400 1.00000 0.00000             
Pb    core -2.719594 -2.832767 -5.925392 1.75282400 1.00000 0.00000             
Pb    core -4.931533 -5.229213 -7.425832 1.75282400 1.00000 0.00000             
S     core -3.444986 -2.706269 21.084266 -1.7528240 1.00000 0.00000             
S     core -2.776262 -5.873599 17.835353 -1.7528240 1.00000 0.00000             
S     core -6.338323 -2.616592 17.963370 -1.7528240 1.00000 0.00000             
Pb    core -6.122989 -2.768335 20.653503 1.75282400 1.00000 0.00000             
Pb    core -3.194268 -3.000478 17.893135 1.75282400 1.00000 0.00000             
S     core -2.888308 -8.707890 2.8590198 -1.7528240 1.00000 0.00000             
S     core -5.786192 -11.89225 3.1412405 -1.7528240 1.00000 0.00000             
S     core -2.480313 -11.92311 0.1033168 -1.7528240 1.00000 0.00000             
S     core -5.751166 -8.453456 -0.301148 -1.7528240 1.00000 0.00000             
Pb    core -6.450942 -9.239317 2.4520549 1.75282400 1.00000 0.00000             
Pb    core -3.127542 -11.56509 2.8440322 1.75282400 1.00000 0.00000             
Pb    core -2.953846 -8.846281 0.0131803 1.75282400 1.00000 0.00000             
S     core -3.059881 -8.961645 14.954115 -1.7528240 1.00000 0.00000             
S     core -3.101131 -11.91375 11.491809 -1.7528240 1.00000 0.00000             
S     core -5.909306 -9.113753 11.980237 -1.7528240 1.00000 0.00000             
Pb    core -5.786382 -8.410667 14.608196 1.75282400 1.00000 0.00000             
Pb    core -3.067080 -8.872635 11.781694 1.75282400 1.00000 0.00000             
Pb    core -5.899665 -11.76791 11.208681 1.75282400 1.00000 0.00000             
S     core -2.906001 16.737093 -8.425827 -1.7528240 1.00000 0.00000             
S     core -5.649032 12.119386 -9.226199 -1.7528240 1.00000 0.00000             
S     core -2.876227 13.825024 -10.74699 -1.7528240 1.00000 0.00000             
Pb    core -5.006609 15.023951 -9.424149 1.75282400 1.00000 0.00000             
Pb    core -2.490996 11.721717 -8.865120 1.75282400 1.00000 0.00000             
Pb    core -4.210127 11.548699 -11.78570 1.75282400 1.00000 0.00000             
S     core -2.894984 12.054412 23.702864 -1.7528240 1.00000 0.00000             
Pb    core -2.714582 14.749260 23.815401 1.75282400 1.00000 0.00000             
S     core -2.655472 21.123557 -2.522231 -1.7528240 1.00000 0.00000             
S     core -5.486132 15.075516 -5.710277 -1.7528240 1.00000 0.00000             
S     core -2.723368 18.359639 -5.668795 -1.7528240 1.00000 0.00000             
Pb    core -4.485520 22.979200 -1.475014 1.75282400 1.00000 0.00000             
Pb    core -2.620702 18.305941 -2.834734 1.75282400 1.00000 0.00000             
Pb    core 0.2029065 23.501672 -5.378315 1.75282400 1.00000 0.00000             
Pb    core -5.194568 17.634352 -6.882356 1.75282400 1.00000 0.00000             
S     core -0.628371 21.716007 21.488901 -1.7528240 1.00000 0.00000             
Pb    core 1.1314328 19.827977 22.617317 1.75282400 1.00000 0.00000             
Pb    core 1.4017946 22.711884 19.812415 1.75282400 1.00000 0.00000             
Pb    core -1.694987 19.916229 19.652587 1.75282400 1.00000 0.00000             
S     core -5.598059 24.085195 3.6353381 -1.7528240 1.00000 0.00000             
S     core -2.668988 23.849899 0.3875025 -1.7528240 1.00000 0.00000             
Pb    core -2.891455 23.927029 3.2294918 1.75282400 1.00000 0.00000             
S     core -2.995009 23.801063 12.219848 -1.7528240 1.00000 0.00000             
Pb    core -2.387284 23.598492 14.981000 1.75282400 1.00000 0.00000             
Pb    core -5.792716 23.308782 11.811371 1.75282400 1.00000 0.00000             
S     core -8.492544 9.0441650 -9.027199 -1.7528240 1.00000 0.00000             
Pb    core -8.639989 6.1553661 -8.894500 1.75282400 1.00000 0.00000             
S     core -8.765328 3.2372930 -2.948736 -1.7528240 1.00000 0.00000             
S     core -11.65112 0.5510031 -2.748756 -1.7528240 1.00000 0.00000             
S     core -8.551831 -0.092941 -6.031938 -1.7528240 1.00000 0.00000             
S     core -11.94588 3.7048845 -6.048780 -1.7528240 1.00000 0.00000             
Pb    core -11.71118 3.2433855 -3.307264 1.75282400 1.00000 0.00000             
Pb    core -8.970661 0.4088843 -3.263646 1.75282400 1.00000 0.00000             
Pb    core -9.758904 2.3281983 -6.928532 1.75282400 1.00000 0.00000             
S     core -8.672454 3.1997126 20.752186 -1.7528240 1.00000 0.00000             
S     core -8.934680 0.1128633 18.014751 -1.7528240 1.00000 0.00000             
S     core -11.75610 4.0227598 17.998423 -1.7528240 1.00000 0.00000             
Pb    core -9.501204 0.6639039 20.694972 1.75282400 1.00000 0.00000             
Pb    core -9.054742 3.2096477 17.815638 1.75282400 1.00000 0.00000             
S     core -8.954004 -2.802465 2.6342425 -1.7528240 1.00000 0.00000             
S     core -11.96402 -5.223778 3.0384747 -1.7528240 1.00000 0.00000             
S     core -7.581362 -4.605840 -2.270731 -1.7528240 1.00000 0.00000             
S     core -14.04446 -1.061390 1.1014698 -1.7528240 1.00000 0.00000             
Pb    core -12.24715 -2.559743 2.8511116 1.75282400 1.00000 0.00000             
Pb    core -9.286660 -5.874851 3.0159521 1.75282400 1.00000 0.00000             
Pb    core -8.640425 -2.850550 -0.177793 1.75282400 1.00000 0.00000             
S     core -9.316109 -2.724193 14.599226 -1.7528240 1.00000 0.00000             
S     core -9.115498 -5.455371 11.705679 -1.7528240 1.00000 0.00000             
S     core -11.99462 -2.428107 11.526092 -1.7528240 1.00000 0.00000             
Pb    core -11.19128 -4.456604 13.109154 1.75282400 1.00000 0.00000             
Pb    core -8.882335 -2.607863 11.603428 1.75282400 1.00000 0.00000             
S     core -8.902011 -8.960073 8.4876001 -1.7528240 1.00000 0.00000             
Pb    core -8.963977 -8.720076 5.8046613 1.75282400 1.00000 0.00000             
S     core -8.559590 15.190986 -3.177626 -1.7528240 1.00000 0.00000             
S     core -11.68544 11.917585 -3.064891 -1.7528240 1.00000 0.00000             
S     core -9.047600 12.461496 -6.451526 -1.7528240 1.00000 0.00000             
Pb    core -10.41038 17.308802 -1.799967 1.75282400 1.00000 0.00000             
Pb    core -8.780373 12.235574 -3.041411 1.75282400 1.00000 0.00000             
Pb    core -8.319533 15.252147 -6.030321 1.75282400 1.00000 0.00000             
Pb    core -11.76834 11.874642 -5.750162 1.75282400 1.00000 0.00000             
S     core -9.027685 12.648128 17.335497 -1.7528240 1.00000 0.00000             
Pb    core -9.962869 11.210315 19.607832 1.75282400 1.00000 0.00000             
Pb    core -8.560185 15.362037 16.924806 1.75282400 1.00000 0.00000             
S     core -8.705470 20.725602 2.8340256 -1.7528240 1.00000 0.00000             
S     core -10.06833 19.939887 -2.317073 -1.7528240 1.00000 0.00000             
S     core -8.379649 17.772840 0.1910876 -1.7528240 1.00000 0.00000             
Pb    core -8.536875 17.932064 3.0066351 1.75282400 1.00000 0.00000             
S     core -7.209587 17.591486 15.390259 -1.7528240 1.00000 0.00000             
Pb    core -9.551862 18.009150 14.019251 1.75282400 1.00000 0.00000             
S     core -14.84623 3.1959108 2.9424243 -1.7528240 1.00000 0.00000             
Pb    core -14.78065 0.3314069 3.2373272 1.75282400 1.00000 0.00000             
Pb    core -14.75076 3.2558075 0.1019714 1.75282400 1.00000 0.00000             
Pb    core -14.72627 3.6878329 11.794237 1.75282400 1.00000 0.00000             
Pb    core 12.438552 3.7403080 -14.67493 1.75282400 1.00000 0.00000             
S     core 14.702712 -4.360533 -8.206905 -1.7528240 1.00000 0.00000             
S     core 11.717157 -6.014457 -9.300048 -1.7528240 1.00000 0.00000             
S     core 11.722812 -2.850145 -11.93218 -1.7528240 1.00000 0.00000             
Pb    core 12.017577 -3.073244 -8.977080 1.75282400 1.00000 0.00000             
Pb    core 14.025533 -7.173269 -8.350817 1.75282400 1.00000 0.00000             
Pb    core 11.429584 -5.542339 -12.02185 1.75282400 1.00000 0.00000             
S     core 12.009700 -2.896074 24.217028 -1.7528240 1.00000 0.00000             
Pb    core 14.693404 -2.542052 23.983932 1.75282400 1.00000 0.00000             
Pb    core 11.355748 -5.682526 23.836364 1.75282400 1.00000 0.00000             
S     core 15.068338 -8.607851 -3.270620 -1.7528240 1.00000 0.00000             
S     core 12.122349 -11.31589 -3.364533 -1.7528240 1.00000 0.00000             
S     core 11.893428 -8.684778 -6.633703 -1.7528240 1.00000 0.00000             
Pb    core 11.970573 -8.597800 -2.800065 1.75282400 1.00000 0.00000             
Pb    core 13.889260 -10.19506 -5.305861 1.75282400 1.00000 0.00000             
S     core 11.723873 -9.062948 18.086615 -1.7528240 1.00000 0.00000             
Pb    core 10.315853 -10.89227 19.633797 1.75282400 1.00000 0.00000             
Pb    core 14.469215 -8.667931 17.696469 1.75282400 1.00000 0.00000             
Pb    core 11.834559 -14.75795 3.1743199 1.75282400 1.00000 0.00000             
S     core 12.771326 17.684566 -8.640253 -1.7528240 1.00000 0.00000             
Pb    core 15.408695 16.383993 -8.679511 1.75282400 1.00000 0.00000             
S     core 11.702159 24.014676 -4.347038 -1.7528240 1.00000 0.00000             
Pb    core 14.368680 23.089730 -4.513825 1.75282400 1.00000 0.00000             
Pb    core 10.903366 23.182651 -6.949712 1.75282400 1.00000 0.00000             
Pb    core 12.111747 23.545296 16.493130 1.75282400 1.00000 0.00000             
S     core 21.068973 3.0739534 -8.652979 -1.7528240 1.00000 0.00000             
S     core 17.621415 -0.806494 -8.982944 -1.7528240 1.00000 0.00000             
S     core 17.864596 2.9457016 -11.71503 -1.7528240 1.00000 0.00000             
Pb    core 18.235323 2.9620827 -8.766138 1.75282400 1.00000 0.00000             
Pb    core 22.902889 1.3021571 -7.432205 1.75282400 1.00000 0.00000             
Pb    core 17.761806 0.2275305 -11.58884 1.75282400 1.00000 0.00000             
S     core 17.729323 3.2361301 23.840177 -1.7528240 1.00000 0.00000             
Pb    core 18.008012 0.5739353 23.961650 1.75282400 1.00000 0.00000             
S     core 21.175840 -3.214595 -2.872604 -1.7528240 1.00000 0.00000             
S     core 17.984824 -6.202839 -2.743459 -1.7528240 1.00000 0.00000             
S     core 17.300956 -4.321118 -5.693807 -1.7528240 1.00000 0.00000             
Pb    core 18.112928 -3.133539 -2.933090 1.75282400 1.00000 0.00000             
Pb    core 20.707761 -5.884604 -2.430474 1.75282400 1.00000 0.00000             
Pb    core 23.891557 -2.529881 -2.497936 1.75282400 1.00000 0.00000             
Pb    core 17.026169 -7.132984 -5.158386 1.75282400 1.00000 0.00000             
S     core 17.641835 -2.611452 18.065350 -1.7528240 1.00000 0.00000             
Pb    core 17.752694 -3.220336 20.608934 1.75282400 1.00000 0.00000             
Pb    core 22.960112 -1.635830 16.491330 1.75282400 1.00000 0.00000             
S     core 20.744568 -9.082518 3.3229391 -1.7528240 1.00000 0.00000             
S     core 17.861537 -11.82180 3.2269203 -1.7528240 1.00000 0.00000             
S     core 17.833753 -9.156591 0.2158974 -1.7528240 1.00000 0.00000             
Pb    core 17.844042 -8.767767 3.3972542 1.75282400 1.00000 0.00000             
Pb    core 19.754039 -10.80848 1.5756536 1.75282400 1.00000 0.00000             
S     core 17.581631 -8.927683 12.054917 -1.7528240 1.00000 0.00000             
Pb    core 16.640311 -10.89920 13.611058 1.75282400 1.00000 0.00000             
S     core 17.905021 11.363960 -9.277147 -1.7528240 1.00000 0.00000             
Pb    core 19.870672 10.372622 -10.88228 1.75282400 1.00000 0.00000             
S     core 17.620694 16.676990 -4.386950 -1.7528240 1.00000 0.00000             
Pb    core 17.213953 19.480227 -4.803511 1.75282400 1.00000 0.00000             
Pb    core 19.433866 15.071310 -5.796676 1.75282400 1.00000 0.00000             
Pb    core 20.546539 17.629152 14.908980 1.75282400 1.00000 0.00000             
S     core 17.384787 22.404486 1.2749565 -1.7528240 1.00000 0.00000             
S     core 23.908332 0.1453257 -2.765039 -1.7528240 1.00000 0.00000             
S     core 23.820595 3.2994751 -5.842355 -1.7528240 1.00000 0.00000             
Pb    core 23.941044 3.0142308 -2.847911 1.75282400 1.00000 0.00000             
S     core 23.822010 3.5973009 18.025154 -1.7528240 1.00000 0.00000             
S     core 24.264529 -5.733796 3.3571817 -1.7528240 1.00000 0.00000             
S     core 23.964614 -2.536180 0.1743382 -1.7528240 1.00000 0.00000             
Pb    core 23.924211 -3.015201 3.0533543 1.75282400 1.00000 0.00000             
S     core 23.963663 -2.487922 11.871775 -1.7528240 1.00000 0.00000             
S     core 23.747409 11.785288 -2.707673 -1.7528240 1.00000 0.00000             
S     core 23.880847 17.755056 3.2380599 -1.7528240 1.00000 0.00000             
Pb    core 23.589388 17.815877 0.5426754 1.75282400 1.00000 0.00000             
S     core 9.8207634 3.1846337 -14.97656 -1.7528240 1.00000 0.00000             
S     core 6.1514671 0.8162239 -15.00803 -1.7528240 1.00000 0.00000             
Pb    core 5.3896764 3.4666061 -14.97994 1.75282400 1.00000 0.00000             
Pb    core 8.7424992 0.7011174 -14.96996 1.75282400 1.00000 0.00000             
S     core 9.0172862 -2.885123 -8.918534 -1.7528240 1.00000 0.00000             
S     core 6.0015690 -5.767172 -8.974591 -1.7528240 1.00000 0.00000             
S     core 8.7427790 -5.559635 -12.12049 -1.7528240 1.00000 0.00000             
S     core 6.0004212 -2.653652 -11.82677 -1.7528240 1.00000 0.00000             
Pb    core 5.9841717 -2.774901 -8.921469 1.75282400 1.00000 0.00000             
Pb    core 8.8350878 -6.028769 -9.115232 1.75282400 1.00000 0.00000             
Pb    core 8.8388186 -2.690748 -11.79906 1.75282400 1.00000 0.00000             
Pb    core 5.9858535 -5.484084 -12.04579 1.75282400 1.00000 0.00000             
S     core 8.7069540 -5.555535 24.074855 -1.7528240 1.00000 0.00000             
S     core 5.9446497 -2.654866 23.848234 -1.7528240 1.00000 0.00000             
Pb    core 8.7927136 -2.713133 23.845735 1.75282400 1.00000 0.00000             
Pb    core 5.9459912 -5.500308 23.965732 1.75282400 1.00000 0.00000             
S     core 9.0676769 -8.632361 -3.035003 -1.7528240 1.00000 0.00000             
S     core 6.0062968 -11.62857 -3.047405 -1.7528240 1.00000 0.00000             
S     core 8.7094581 -11.56831 -6.089080 -1.7528240 1.00000 0.00000             
S     core 5.9165820 -8.667022 -5.877355 -1.7528240 1.00000 0.00000             
Pb    core 6.0840750 -8.743015 -2.856127 1.75282400 1.00000 0.00000             
Pb    core 9.1651968 -11.67874 -3.197957 1.75282400 1.00000 0.00000             
Pb    core 8.7731955 -8.643050 -5.897721 1.75282400 1.00000 0.00000             
Pb    core 5.9221302 -11.63403 -5.829416 1.75282400 1.00000 0.00000             
S     core 8.5681691 -9.009714 20.744242 -1.7528240 1.00000 0.00000             
S     core 8.3119407 -11.75242 17.987179 -1.7528240 1.00000 0.00000             
S     core 5.8283436 -8.758536 17.810431 -1.7528240 1.00000 0.00000             
Pb    core 5.8311820 -8.701724 20.741933 1.75282400 1.00000 0.00000             
Pb    core 8.7483946 -8.729360 17.772574 1.75282400 1.00000 0.00000             
Pb    core 5.6289802 -11.68711 17.677023 1.75282400 1.00000 0.00000             
S     core 9.1239155 -14.79244 3.2848723 -1.7528240 1.00000 0.00000             
S     core 5.8164499 -14.88778 0.2631875 -1.7528240 1.00000 0.00000             
Pb    core 6.4477607 -14.88995 2.9361530 1.75282400 1.00000 0.00000             
S     core 5.9684054 -14.91133 11.699304 -1.7528240 1.00000 0.00000             
Pb    core 8.7352429 -14.78064 11.528711 1.75282400 1.00000 0.00000             
S     core 6.5088465 11.988777 -14.79377 -1.7528240 1.00000 0.00000             
Pb    core 9.2380125 12.106270 -14.55514 1.75282400 1.00000 0.00000             
S     core 9.5870819 21.087297 -8.462584 -1.7528240 1.00000 0.00000             
S     core 6.5636275 18.106127 -8.828233 -1.7528240 1.00000 0.00000             
S     core 9.1108116 17.745678 -11.83180 -1.7528240 1.00000 0.00000             
Pb    core 6.8185863 20.981558 -8.539112 1.75282400 1.00000 0.00000             
Pb    core 9.8319243 18.287488 -9.196281 1.75282400 1.00000 0.00000             
Pb    core 6.4289244 17.845211 -11.79173 1.75282400 1.00000 0.00000             
S     core 8.4703584 17.508908 23.997694 -1.7528240 1.00000 0.00000             
Pb    core 5.7552372 17.651072 23.905276 1.75282400 1.00000 0.00000             
S     core 6.0403408 23.852412 -2.828961 -1.7528240 1.00000 0.00000             
S     core 8.3633939 23.661155 -6.079666 -1.7528240 1.00000 0.00000             
Pb    core 9.0831632 23.884974 -3.267970 1.75282400 1.00000 0.00000             
Pb    core 5.7368295 23.779055 -5.688350 1.75282400 1.00000 0.00000             
S     core 9.1867935 23.667943 17.439542 -1.7528240 1.00000 0.00000             
Pb    core 6.3105520 23.742676 17.722033 1.75282400 1.00000 0.00000             
S     core 3.7340366 9.3097830 -15.05207 -1.7528240 1.00000 0.00000             
S     core 0.6115079 8.0995536 -13.18623 -1.7528240 1.00000 0.00000             
Pb    core 2.7293302 6.7756373 -14.72787 1.75282400 1.00000 0.00000             
S     core 3.1057741 3.1419680 -8.878838 -1.7528240 1.00000 0.00000             
S     core -0.052008 0.1292290 -8.813488 -1.7528240 1.00000 0.00000             
S     core 2.9883348 0.1133089 -11.71306 -1.7528240 1.00000 0.00000             
S     core 0.0770401 2.8926951 -11.63197 -1.7528240 1.00000 0.00000             
Pb    core 0.1705837 3.1398494 -8.811813 1.75282400 1.00000 0.00000             
Pb    core 3.1205971 0.1885683 -8.888134 1.75282400 1.00000 0.00000             
Pb    core 3.0415855 3.0662819 -12.02012 1.75282400 1.00000 0.00000             
Pb    core 0.1834637 0.1748019 -11.87793 1.75282400 1.00000 0.00000             
S     core 2.9362025 3.6295063 26.888552 -1.7528240 1.00000 0.00000             
S     core 2.8834819 0.1689671 23.778572 -1.7528240 1.00000 0.00000             
S     core -0.181959 2.8364397 24.073239 -1.7528240 1.00000 0.00000             
Pb    core 0.3235933 3.0903208 26.905077 1.75282400 1.00000 0.00000             
Pb    core 3.0066353 3.1677697 24.002706 1.75282400 1.00000 0.00000             
Pb    core 0.1465209 0.1410147 23.645602 1.75282400 1.00000 0.00000             
S     core 3.0483641 -2.818332 -2.935828 -1.7528240 1.00000 0.00000             
S     core 0.0685169 -5.791110 -2.847974 -1.7528240 1.00000 0.00000             
S     core 3.0972438 -5.643096 -5.939114 -1.7528240 1.00000 0.00000             
S     core 0.1523797 -2.821445 -5.986294 -1.7528240 1.00000 0.00000             
Pb    core 0.1252104 -2.780956 -2.864367 1.75282400 1.00000 0.00000             
Pb    core 3.1146509 -5.759258 -2.820155 1.75282400 1.00000 0.00000             
Pb    core 3.1362763 -2.720108 -5.887129 1.75282400 1.00000 0.00000             
Pb    core 0.3516285 -5.672387 -5.595877 1.75282400 1.00000 0.00000             
S     core 2.8996142 -2.886765 20.852275 -1.7528240 1.00000 0.00000             
S     core -0.074564 -5.909035 20.508675 -1.7528240 1.00000 0.00000             
S     core 2.8505464 -5.823595 17.758088 -1.7528240 1.00000 0.00000             
S     core -0.151613 -2.705880 17.883931 -1.7528240 1.00000 0.00000             
Pb    core 0.0237238 -3.048305 20.869739 1.75282400 1.00000 0.00000             
Pb    core 2.6948488 -6.103158 21.298636 1.75282400 1.00000 0.00000             
Pb    core 2.9556973 -2.832706 17.936150 1.75282400 1.00000 0.00000             
Pb    core 0.0429376 -5.465001 17.735751 1.75282400 1.00000 0.00000             
S     core 2.9735894 -8.898834 2.9664446 -1.7528240 1.00000 0.00000             
S     core -0.008679 -11.82208 2.9543500 -1.7528240 1.00000 0.00000             
S     core 3.0420014 -11.91479 -0.085274 -1.7528240 1.00000 0.00000             
S     core 0.0677921 -8.725854 0.0122283 -1.7528240 1.00000 0.00000             
Pb    core 0.0090601 -8.751599 3.0114906 1.75282400 1.00000 0.00000             
Pb    core 3.0978939 -11.85077 2.9487986 1.75282400 1.00000 0.00000             
Pb    core 3.1595193 -8.812088 0.0522863 1.75282400 1.00000 0.00000             
Pb    core 0.2643662 -11.53161 0.1483073 1.75282400 1.00000 0.00000             
S     core 2.7157280 -8.711907 14.898740 -1.7528240 1.00000 0.00000             
S     core -0.101486 -11.53707 14.769577 -1.7528240 1.00000 0.00000             
S     core 2.6444852 -12.10297 11.998573 -1.7528240 1.00000 0.00000             
S     core -0.100801 -8.790932 11.755638 -1.7528240 1.00000 0.00000             
Pb    core -0.158343 -8.640491 14.550314 1.75282400 1.00000 0.00000             
Pb    core 2.7036354 -11.62515 14.985940 1.75282400 1.00000 0.00000             
Pb    core 2.8742107 -8.846015 11.862918 1.75282400 1.00000 0.00000             
Pb    core -0.322002 -11.67100 11.938472 1.75282400 1.00000 0.00000             
S     core 2.7637622 -14.93593 9.0648727 -1.7528240 1.00000 0.00000             
S     core 0.0799086 -14.88834 5.9134593 -1.7528240 1.00000 0.00000             
Pb    core 0.0734292 -14.78837 8.5446986 1.75282400 1.00000 0.00000             
Pb    core 2.9298168 -14.83566 5.6188300 1.75282400 1.00000 0.00000             
S     core 3.4592460 15.264682 -8.837240 -1.7528240 1.00000 0.00000             
S     core 0.2952885 12.400800 -8.848578 -1.7528240 1.00000 0.00000             
S     core 3.0747323 12.311044 -12.16562 -1.7528240 1.00000 0.00000             
S     core 0.6591737 15.534245 -11.86680 -1.7528240 1.00000 0.00000             
Pb    core -0.621383 15.147346 -9.306080 1.75282400 1.00000 0.00000             
Pb    core 3.1934453 12.232595 -8.899452 1.75282400 1.00000 0.00000             
Pb    core 3.4564613 15.169539 -11.65449 1.75282400 1.00000 0.00000             
Pb    core 0.1316267 12.771462 -11.78977 1.75282400 1.00000 0.00000             
S     core 2.7709872 12.045002 23.669873 -1.7528240 1.00000 0.00000             
S     core -0.063294 14.787836 23.786831 -1.7528240 1.00000 0.00000             
Pb    core 2.7345280 15.037856 23.776980 1.75282400 1.00000 0.00000             
Pb    core -0.006858 11.904141 23.879676 1.75282400 1.00000 0.00000             
S     core 3.0830637 20.936750 -2.883102 -1.7528240 1.00000 0.00000             
S     core 0.2827902 18.126902 -2.804180 -1.7528240 1.00000 0.00000             
S     core 3.1264094 18.068282 -5.963236 -1.7528240 1.00000 0.00000             
S     core 0.2609999 20.991899 -6.716965 -1.7528240 1.00000 0.00000             
Pb    core 0.1569209 21.021210 -2.511225 1.75282400 1.00000 0.00000             
Pb    core 3.2645259 17.974473 -2.853917 1.75282400 1.00000 0.00000             
Pb    core 3.3286591 20.902267 -5.865150 1.75282400 1.00000 0.00000             
Pb    core 0.2713184 18.137531 -5.613154 1.75282400 1.00000 0.00000             
S     core 3.3124695 20.756255 20.824810 -1.7528240 1.00000 0.00000             