# 
# Keywords:
# 
conp opti  
# 
# Options:
# 
cartesian 
S     core 2.9030261 2.3187725 -2.268484 -1.7528240 1.00000 0.00000             
S     core 2.1737290 -2.635010 4.1368566 -1.7528240 1.00000 0.00000             
S     core 7.8943674 1.9843080 -2.656668 -1.7528240 1.00000 0.00000             
Pb    core 5.3570746 0.9855064 -2.388025 1.75282400 1.00000 0.00000             
S     core 7.4200428 -3.131693 2.7204587 -1.7528240 1.00000 0.00000             
Pb    core 4.7901430 -3.078071 3.4877959 1.75282400 1.00000 0.00000             
Pb    core 3.1745923 4.9191224 -2.893924 1.75282400 1.00000 0.00000             
S     core 2.6254780 3.1913332 3.5242843 -1.7528240 1.00000 0.00000             
S     core -1.786731 1.4836717 4.7663175 -1.7528240 1.00000 0.00000             
S     core 0.9747151 0.8186236 1.4773462 -1.7528240 1.00000 0.00000             
S     core -1.790557 4.1557788 1.6378114 -1.7528240 1.00000 0.00000             
Pb    core -0.080579 3.6441791 3.9216536 1.75282400 1.00000 0.00000             
Pb    core 2.0965949 0.1384438 3.9724842 1.75282400 1.00000 0.00000             
Pb    core 2.2851625 3.0458094 0.4315862 1.75282400 1.00000 0.00000             
Pb    core -1.722747 1.2915308 1.9294465 1.75282400 1.00000 0.00000             
S     core 3.8946983 4.3175662 15.393136 -1.7528240 1.00000 0.00000             
S     core 3.2235135 0.8637444 12.619663 -1.7528240 1.00000 0.00000             
S     core 0.4449010 4.2270342 12.589723 -1.7528240 1.00000 0.00000             
Pb    core 3.2835372 3.7379473 12.539090 1.75282400 1.00000 0.00000             
Pb    core 0.4570791 1.4119890 12.690041 1.75282400 1.00000 0.00000             
S     core 3.4864140 -2.666379 9.4026727 -1.7528240 1.00000 0.00000             
Pb    core 2.7124697 -2.816179 6.8255468 1.75282400 1.00000 0.00000             
S     core 4.2603074 14.913561 2.5530449 -1.7528240 1.00000 0.00000             
S     core 0.7193954 12.175904 3.1839578 -1.7528240 1.00000 0.00000             
S     core 3.3408062 11.538880 -0.201310 -1.7528240 1.00000 0.00000             
Pb    core 3.5592672 12.181310 2.7654553 1.75282400 1.00000 0.00000             
Pb    core 0.6306615 11.913066 0.4193035 1.75282400 1.00000 0.00000             
S     core 4.6630241 12.282885 11.571152 -1.7528240 1.00000 0.00000             
Pb    core 1.8750344 12.390361 11.539958 1.75282400 1.00000 0.00000             
S     core -2.696316 9.0353882 3.3955197 -1.7528240 1.00000 0.00000             
Pb    core -2.820497 6.3728223 3.2885213 1.75282400 1.00000 0.00000             
S     core -2.804292 3.9215733 9.2771265 -1.7528240 1.00000 0.00000             
Pb    core -2.862599 3.4498849 6.6510897 1.75282400 1.00000 0.00000             
S     core 13.357171 1.4924058 1.8234446 -1.7528240 1.00000 0.00000             
S     core 10.604261 -1.603736 4.4507554 -1.7528240 1.00000 0.00000             
S     core 9.6954669 0.0422287 0.6550635 -1.7528240 1.00000 0.00000             
Pb    core 10.983225 0.7942755 3.1397996 1.75282400 1.00000 0.00000             
Pb    core 8.0410616 -2.221531 0.1587835 1.75282400 1.00000 0.00000             
S     core 12.250209 3.5405868 12.363651 -1.7528240 1.00000 0.00000             
Pb    core 11.644834 0.8014002 12.105603 1.75282400 1.00000 0.00000             
S     core 12.185994 11.057272 2.3526300 -1.7528240 1.00000 0.00000             
Pb    core 11.342956 11.359852 -0.338263 1.75282400 1.00000 0.00000             
Pb    core 13.074965 11.340531 10.584878 1.75282400 1.00000 0.00000             
S     core 9.5669288 6.9794146 -3.113865 -1.7528240 1.00000 0.00000             
S     core 5.6273951 6.0290237 -3.063577 -1.7528240 1.00000 0.00000             
Pb    core 7.2060677 8.3957591 -2.740890 1.75282400 1.00000 0.00000             
Pb    core 8.1277735 4.6348501 -3.059348 1.75282400 1.00000 0.00000             
S     core 8.4346214 2.3853909 3.1142792 -1.7528240 1.00000 0.00000             
S     core 4.9996729 -0.081192 3.3985799 -1.7528240 1.00000 0.00000             
S     core 5.6470627 -1.243656 -0.737082 -1.7528240 1.00000 0.00000             
S     core 5.1205930 2.5754889 0.4353900 -1.7528240 1.00000 0.00000             
Pb    core 5.4851472 2.8181070 3.3273871 1.75282400 1.00000 0.00000             
Pb    core 7.9416042 -0.459654 3.4198783 1.75282400 1.00000 0.00000             
Pb    core 7.9566856 2.2284364 0.1563720 1.75282400 1.00000 0.00000             
Pb    core 3.7042987 -0.064158 0.7514961 1.75282400 1.00000 0.00000             
S     core 8.8707083 0.7689440 12.273833 -1.7528240 1.00000 0.00000             
S     core 6.2613067 3.4997277 12.197546 -1.7528240 1.00000 0.00000             
Pb    core 6.4514225 3.8549787 15.064909 1.75282400 1.00000 0.00000             
Pb    core 9.1264838 3.6298940 11.831866 1.75282400 1.00000 0.00000             
Pb    core 5.9716021 0.6149596 12.273975 1.75282400 1.00000 0.00000             
S     core 8.9382064 -2.643718 8.4075262 -1.7528240 1.00000 0.00000             
S     core 5.5672633 -2.908050 6.1979835 -1.7528240 1.00000 0.00000             
Pb    core 6.1803222 -2.789424 8.9752076 1.75282400 1.00000 0.00000             
Pb    core 8.3917608 -3.088540 5.5607491 1.75282400 1.00000 0.00000             
S     core 9.5269755 13.828342 1.5703115 -1.7528240 1.00000 0.00000             
S     core 6.4718953 11.578770 2.5198368 -1.7528240 1.00000 0.00000             
S     core 8.6645029 10.496770 -0.984388 -1.7528240 1.00000 0.00000             
Pb    core 6.9017288 14.599224 2.1160013 1.75282400 1.00000 0.00000             
Pb    core 9.2689223 11.173396 2.3305837 1.75282400 1.00000 0.00000             
Pb    core 6.0916546 11.306835 -0.242269 1.75282400 1.00000 0.00000             
S     core 10.346935 11.757705 10.914221 -1.7528240 1.00000 0.00000             
Pb    core 7.4904654 12.016160 11.254889 1.75282400 1.00000 0.00000             
S     core 3.2565681 8.9613600 3.0110018 -1.7528240 1.00000 0.00000             
S     core 0.1548720 6.3990623 3.4047826 -1.7528240 1.00000 0.00000             
S     core 2.4702697 5.8179114 -0.197808 -1.7528240 1.00000 0.00000             
S     core 0.2403537 9.1282666 0.2132449 -1.7528240 1.00000 0.00000             
Pb    core 0.1284182 9.3982437 3.2106129 1.75282400 1.00000 0.00000             
Pb    core 2.9972948 6.1403290 3.3918601 1.75282400 1.00000 0.00000             
Pb    core 3.0160381 8.7587327 0.1147111 1.75282400 1.00000 0.00000             
Pb    core -0.283339 6.4554514 0.5692408 1.75282400 1.00000 0.00000             
S     core 5.4035631 8.3676987 14.541549 -1.7528240 1.00000 0.00000             
S     core 3.4654867 6.6309671 12.147565 -1.7528240 1.00000 0.00000             
S     core 1.2597871 9.7342247 12.160741 -1.7528240 1.00000 0.00000             
Pb    core 3.2492974 6.8745900 15.029943 1.75282400 1.00000 0.00000             
Pb    core 4.2420102 9.5017938 12.018822 1.75282400 1.00000 0.00000             
Pb    core 0.6056502 6.9971238 12.054487 1.75282400 1.00000 0.00000             
S     core 3.1039263 3.5135481 9.5067867 -1.7528240 1.00000 0.00000             
S     core 0.1089471 0.8197282 9.9998532 -1.7528240 1.00000 0.00000             
S     core 2.4627764 0.2666750 6.7683037 -1.7528240 1.00000 0.00000             
S     core 0.0652038 3.6057025 6.7214366 -1.7528240 1.00000 0.00000             
Pb    core 0.0254304 3.7501690 9.7458016 1.75282400 1.00000 0.00000             
Pb    core 2.8753364 0.0712455 9.8504448 1.75282400 1.00000 0.00000             
Pb    core 2.8988522 3.3094269 6.6582380 1.75282400 1.00000 0.00000             
Pb    core -0.328183 0.7931586 7.2924877 1.75282400 1.00000 0.00000             
S     core 5.0161719 15.357648 7.9348776 -1.7528240 1.00000 0.00000             
S     core 1.2952336 12.478599 8.8423566 -1.7528240 1.00000 0.00000             
S     core 3.8720332 12.239055 5.7125484 -1.7528240 1.00000 0.00000             
Pb    core 4.2457687 12.724098 8.6697311 1.75282400 1.00000 0.00000             
Pb    core 4.4853317 15.193958 5.2728781 1.75282400 1.00000 0.00000             
Pb    core 0.9948169 12.345541 6.0264212 1.75282400 1.00000 0.00000             
S     core -2.422367 9.2909555 8.8001533 -1.7528240 1.00000 0.00000             
S     core -2.770491 6.2107178 6.0767259 -1.7528240 1.00000 0.00000             
Pb    core -2.716808 6.6202464 9.0512984 1.75282400 1.00000 0.00000             
Pb    core -2.593234 9.3173340 6.0979942 1.75282400 1.00000 0.00000             
S     core 12.960220 3.9064072 -1.357539 -1.7528240 1.00000 0.00000             
S     core 11.665530 5.5084298 2.3962019 -1.7528240 1.00000 0.00000             
S     core 12.105245 8.5492078 -0.483901 -1.7528240 1.00000 0.00000             
Pb    core 12.168192 8.2513487 2.3219965 1.75282400 1.00000 0.00000             
Pb    core 11.870585 1.4526634 -0.638492 1.75282400 1.00000 0.00000             
Pb    core 12.110584 6.3707090 -2.209471 1.75282400 1.00000 0.00000             
S     core 13.341297 8.5351499 10.680188 -1.7528240 1.00000 0.00000             
Pb    core 13.239968 5.7933896 10.813076 1.75282400 1.00000 0.00000             
S     core 11.771590 0.3623289 9.3916895 -1.7528240 1.00000 0.00000             
S     core 11.909011 2.2175547 5.6826187 -1.7528240 1.00000 0.00000             
Pb    core 11.887682 2.9546323 8.4606498 1.75282400 1.00000 0.00000             
Pb    core 14.364865 1.8313154 4.3336524 1.75282400 1.00000 0.00000             
Pb    core 10.967752 -1.052914 7.0907115 1.75282400 1.00000 0.00000             
S     core 13.049423 11.089706 7.8014403 -1.7528240 1.00000 0.00000             
Pb    core 12.656880 11.106164 5.0797402 1.75282400 1.00000 0.00000             
S     core 9.1257514 8.3121358 2.5831278 -1.7528240 1.00000 0.00000             
S     core 5.8435217 5.7301072 3.0139608 -1.7528240 1.00000 0.00000             
S     core 8.3314792 5.0648942 -0.156368 -1.7528240 1.00000 0.00000             
S     core 5.8646004 8.4138909 -0.188607 -1.7528240 1.00000 0.00000             
Pb    core 6.1545736 8.6736153 2.7863010 1.75282400 1.00000 0.00000             
Pb    core 8.8311266 5.3142032 2.6896226 1.75282400 1.00000 0.00000             
Pb    core 9.3255640 7.7580775 -0.222620 1.75282400 1.00000 0.00000             
Pb    core 5.5549263 5.5380244 0.0128395 1.75282400 1.00000 0.00000             
S     core 10.754334 8.5332049 14.154069 -1.7528240 1.00000 0.00000             
S     core 8.4300841 5.4662964 14.173937 -1.7528240 1.00000 0.00000             
S     core 10.454590 6.0307385 10.968981 -1.7528240 1.00000 0.00000             
S     core 7.3512218 9.1115824 11.609018 -1.7528240 1.00000 0.00000             
Pb    core 8.0873055 8.5351772 14.525065 1.75282400 1.00000 0.00000             
Pb    core 11.152269 5.9001039 13.821278 1.75282400 1.00000 0.00000             
Pb    core 10.295313 8.9373932 11.358584 1.75282400 1.00000 0.00000             
Pb    core 6.3447919 6.4615741 12.074349 1.75282400 1.00000 0.00000             
S     core 9.0548441 3.1046939 8.9087852 -1.7528240 1.00000 0.00000             
S     core 5.9121705 0.2209978 9.4552400 -1.7528240 1.00000 0.00000             
S     core 8.2897629 -0.001426 6.2807398 -1.7528240 1.00000 0.00000             
S     core 5.7693289 3.0516479 6.2664317 -1.7528240 1.00000 0.00000             
Pb    core 5.9467257 3.2102061 9.2462546 1.75282400 1.00000 0.00000             
Pb    core 8.7553362 0.1272521 9.3384305 1.75282400 1.00000 0.00000             
Pb    core 8.6857178 2.7332956 5.9997548 1.75282400 1.00000 0.00000             
Pb    core 5.4308176 0.0564475 6.5007627 1.75282400 1.00000 0.00000             
S     core 10.379081 14.609556 7.0766590 -1.7528240 1.00000 0.00000             
S     core 7.2178364 12.122489 8.3771934 -1.7528240 1.00000 0.00000             
S     core 9.7765109 11.366155 5.1464605 -1.7528240 1.00000 0.00000             
S     core 7.3157896 14.710590 4.8679089 -1.7528240 1.00000 0.00000             
Pb    core 7.7210061 15.079180 7.6805294 1.75282400 1.00000 0.00000             
Pb    core 10.162728 11.975940 8.0453339 1.75282400 1.00000 0.00000             
Pb    core 10.062933 14.286305 4.3771390 1.75282400 1.00000 0.00000             
Pb    core 6.7801065 11.878505 5.4831592 1.75282400 1.00000 0.00000             
S     core 3.8350759 9.3736158 8.9679248 -1.7528240 1.00000 0.00000             
S     core 0.2882140 6.7089106 9.3032431 -1.7528240 1.00000 0.00000             
S     core 3.1678541 6.2578973 6.2525428 -1.7528240 1.00000 0.00000             
S     core 0.4182530 9.4868607 6.1542718 -1.7528240 1.00000 0.00000             
Pb    core 0.3988641 9.7482130 9.1789692 1.75282400 1.00000 0.00000             
Pb    core 3.3074852 6.5037046 9.2090393 1.75282400 1.00000 0.00000             
Pb    core 3.4426864 9.3142352 6.0516487 1.75282400 1.00000 0.00000             
Pb    core 0.2249094 6.5903293 6.4340255 1.75282400 1.00000 0.00000             
S     core 13.335509 5.4320466 7.9005478 -1.7528240 1.00000 0.00000             
S     core 14.985509 4.4752748 4.0695172 -1.7528240 1.00000 0.00000             
S     core 12.920849 8.0634719 5.2058405 -1.7528240 1.00000 0.00000             
Pb    core 12.471486 8.3747622 8.0479075 1.75282400 1.00000 0.00000             
Pb    core 15.117846 6.4581262 5.8811357 1.75282400 1.00000 0.00000             
Pb    core 13.830911 4.2297435 1.2883056 1.75282400 1.00000 0.00000             
Pb    core 12.005531 5.1074669 5.0883292 1.75282400 1.00000 0.00000             
S     core 9.7047279 8.7278460 8.2496882 -1.7528240 1.00000 0.00000             
S     core 6.2949756 6.1511194 9.0202008 -1.7528240 1.00000 0.00000             
S     core 9.2040027 5.5956010 5.7611680 -1.7528240 1.00000 0.00000             
S     core 6.4403972 8.8478017 5.7324068 -1.7528240 1.00000 0.00000             
Pb    core 6.7268823 9.2136021 8.6981963 1.75282400 1.00000 0.00000             
Pb    core 9.0426574 6.0017272 8.6100446 1.75282400 1.00000 0.00000             
Pb    core 9.3054994 8.5540910 5.4273248 1.75282400 1.00000 0.00000             
Pb    core 6.0511720 5.9829430 6.0170570 1.75282400 1.00000 0.00000             
species   2
S      core   -1.752824                  
Pb     core    1.752824                  
buck     
S     core S     core  11413.0900     0.153000  129.1800      0.00 15.00
buck     
Pb    core Pb    core  11413.0900     0.153000  200.0000      0.00 15.00
buck     
S     core Pb    core  2845.45780     0.347536  0.000000      0.00 15.00
dump Results\PbS_COMP_SPHERE_07.gin                              
output frc Results\PbS_COMP_SPHERE_07.frc                              
