# 
# Keywords:
# 
conp opti  
# 
# Options:
# 
cartesian 
S     core -2.784680 -1.286830 -10.19206 -1.7528240 1.00000 0.00000             
S     core 0.3778816 -11.93438 -2.428384 -1.7528240 1.00000 0.00000             
S     core -8.648986 -2.441843 -3.372120 -1.7528240 1.00000 0.00000             
S     core 3.0315627 -2.963474 -9.116258 -1.7528240 1.00000 0.00000             
S     core 0.1654758 -5.373435 -9.052302 -1.7528240 1.00000 0.00000             
Pb    core -0.803969 -2.741098 -8.807933 1.75282400 1.00000 0.00000             
Pb    core 2.7932294 -5.773601 -8.951008 1.75282400 1.00000 0.00000             
Pb    core 2.6565441 -2.608410 -11.84367 1.75282400 1.00000 0.00000             
Pb    core 3.3584765 -2.520182 23.872684 1.75282400 1.00000 0.00000             
S     core 2.9345716 -9.190056 -3.080470 -1.7528240 1.00000 0.00000             
Pb    core 0.0374737 -9.244033 -2.638531 1.75282400 1.00000 0.00000             
Pb    core 3.0621197 -12.22304 -2.395352 1.75282400 1.00000 0.00000             
Pb    core 3.1142756 -9.154373 -5.825469 1.75282400 1.00000 0.00000             
S     core 0.7707778 -8.923070 18.337138 -1.7528240 1.00000 0.00000             
Pb    core 3.3879792 -8.648645 17.913815 1.75282400 1.00000 0.00000             
S     core 0.2968200 17.318883 -9.467639 -1.7528240 1.00000 0.00000             
Pb    core 3.0404122 17.381279 -9.352073 1.75282400 1.00000 0.00000             
Pb    core 3.2999228 23.835531 -3.234997 1.75282400 1.00000 0.00000             
S     core -3.301121 2.9593452 -9.032516 -1.7528240 1.00000 0.00000             
S     core -7.343475 0.8446366 -7.926221 -1.7528240 1.00000 0.00000             
Pb    core -6.158906 3.2580710 -8.523845 1.75282400 1.00000 0.00000             
Pb    core -4.781840 -0.488048 -8.112147 1.75282400 1.00000 0.00000             
Pb    core -3.277554 3.3707708 -11.76568 1.75282400 1.00000 0.00000             
Pb    core -2.585772 3.6391525 23.860760 1.75282400 1.00000 0.00000             
S     core -2.903022 -2.928787 -2.869850 -1.7528240 1.00000 0.00000             
S     core -5.740970 -5.682251 -2.964932 -1.7528240 1.00000 0.00000             
S     core -3.177416 -5.689637 -5.810629 -1.7528240 1.00000 0.00000             
S     core -5.891193 -2.754832 -6.357771 -1.7528240 1.00000 0.00000             
Pb    core -5.971664 -2.795716 -2.906595 1.75282400 1.00000 0.00000             
Pb    core -3.000462 -5.822633 -2.950699 1.75282400 1.00000 0.00000             
Pb    core -3.156988 -2.846266 -5.665938 1.75282400 1.00000 0.00000             
Pb    core -6.031180 -5.480878 -5.676093 1.75282400 1.00000 0.00000             
S     core -1.410153 -1.339661 23.049729 -1.7528240 1.00000 0.00000             
S     core -2.795038 -5.597980 18.219740 -1.7528240 1.00000 0.00000             
S     core -5.608362 -2.751455 18.252937 -1.7528240 1.00000 0.00000             
Pb    core -2.815534 -2.781736 17.874455 1.75282400 1.00000 0.00000             
Pb    core -5.551926 -5.495668 18.005287 1.75282400 1.00000 0.00000             
S     core -2.584972 -8.717504 3.2535582 -1.7528240 1.00000 0.00000             
S     core -4.963330 -10.65427 1.5051206 -1.7528240 1.00000 0.00000             
Pb    core -6.548871 -8.739574 2.8371148 1.75282400 1.00000 0.00000             
Pb    core -4.103523 -11.17214 4.0679287 1.75282400 1.00000 0.00000             
Pb    core -3.058730 -8.980944 0.6070230 1.75282400 1.00000 0.00000             
S     core -2.628080 -8.887525 14.727506 -1.7528240 1.00000 0.00000             
S     core -4.652018 -10.74655 10.537643 -1.7528240 1.00000 0.00000             
Pb    core -3.025427 -8.891699 12.062280 1.75282400 1.00000 0.00000             
S     core -1.719773 14.020659 -10.74219 -1.7528240 1.00000 0.00000             
S     core -4.826804 10.574848 -10.90869 -1.7528240 1.00000 0.00000             
Pb    core -2.916764 11.760089 -9.275552 1.75282400 1.00000 0.00000             
S     core -2.302996 11.783869 23.940443 -1.7528240 1.00000 0.00000             
S     core -2.697162 20.746475 -2.789408 -1.7528240 1.00000 0.00000             
S     core -5.673859 17.685879 -3.416420 -1.7528240 1.00000 0.00000             
S     core -3.041044 17.253913 -7.330787 -1.7528240 1.00000 0.00000             
Pb    core -2.890864 17.975521 -3.175122 1.75282400 1.00000 0.00000             
Pb    core -5.667304 17.470261 -6.184487 1.75282400 1.00000 0.00000             
S     core -2.715088 17.962151 18.049402 -1.7528240 1.00000 0.00000             
Pb    core -5.456434 17.688996 17.865807 1.75282400 1.00000 0.00000             
Pb    core 0.2892833 23.779480 6.1229719 1.75282400 1.00000 0.00000             
S     core -0.549780 24.560798 13.327471 -1.7528240 1.00000 0.00000             
S     core -8.688094 3.0535475 -2.821633 -1.7528240 1.00000 0.00000             
S     core -10.32828 0.9568569 -4.913930 -1.7528240 1.00000 0.00000             
Pb    core -11.57531 2.8885364 -3.150043 1.75282400 1.00000 0.00000             
Pb    core -8.732269 0.2108405 -2.720636 1.75282400 1.00000 0.00000             
Pb    core -8.607755 2.8949379 -5.852401 1.75282400 1.00000 0.00000             
S     core -9.060170 0.7854578 18.187134 -1.7528240 1.00000 0.00000             
Pb    core -8.732330 3.3867495 17.719389 1.75282400 1.00000 0.00000             
S     core -8.940031 -2.941680 2.8702253 -1.7528240 1.00000 0.00000             
S     core -8.216320 -7.325309 1.0989129 -1.7528240 1.00000 0.00000             
S     core -11.86942 -2.609092 0.3898444 -1.7528240 1.00000 0.00000             
Pb    core -11.91649 -2.610634 3.1299709 1.75282400 1.00000 0.00000             
Pb    core -8.869792 -5.747003 3.1676752 1.75282400 1.00000 0.00000             
Pb    core -9.201623 -2.890917 -0.324643 1.75282400 1.00000 0.00000             
S     core -8.826121 -2.627523 14.781986 -1.7528240 1.00000 0.00000             
S     core -8.673651 -5.701783 11.335103 -1.7528240 1.00000 0.00000             
Pb    core -8.726201 -2.982144 12.126198 1.75282400 1.00000 0.00000             
S     core -9.001365 14.557348 -2.755244 -1.7528240 1.00000 0.00000             
S     core -8.883077 11.191208 -6.099963 -1.7528240 1.00000 0.00000             
Pb    core -8.898747 11.910353 -3.435926 1.75282400 1.00000 0.00000             
Pb    core -8.825662 18.125833 3.2440647 1.75282400 1.00000 0.00000             
S     core -10.59782 17.059159 10.455857 -1.7528240 1.00000 0.00000             
S     core 14.169347 -2.909165 -9.175438 -1.7528240 1.00000 0.00000             
Pb    core 11.547228 -2.879696 -8.996228 1.75282400 1.00000 0.00000             
S     core 13.470615 -11.06520 -1.692127 -1.7528240 1.00000 0.00000             
Pb    core 11.857588 -9.100048 -2.621065 1.75282400 1.00000 0.00000             
S     core 11.606137 -8.789059 18.047716 -1.7528240 1.00000 0.00000             
S     core 10.502229 16.464330 -11.33356 -1.7528240 1.00000 0.00000             
S     core 17.876473 0.2699866 -8.920009 -1.7528240 1.00000 0.00000             
Pb    core 17.815938 2.9002438 -8.939248 1.75282400 1.00000 0.00000             
S     core 20.706292 -2.756004 -2.819984 -1.7528240 1.00000 0.00000             
S     core 17.532160 -6.145250 -2.935090 -1.7528240 1.00000 0.00000             
S     core 17.557960 -3.247746 -5.917825 -1.7528240 1.00000 0.00000             
Pb    core 18.020076 -3.119353 -3.114193 1.75282400 1.00000 0.00000             
Pb    core 17.631339 -5.975034 -5.693010 1.75282400 1.00000 0.00000             
S     core 17.839328 -2.706685 17.900180 -1.7528240 1.00000 0.00000             
Pb    core 17.860206 -5.480640 17.872087 1.75282400 1.00000 0.00000             
Pb    core 17.976461 -8.931094 3.6001534 1.75282400 1.00000 0.00000             
S     core 20.014991 -7.241130 10.799786 -1.7528240 1.00000 0.00000             
S     core 17.861849 17.673448 -3.481421 -1.7528240 1.00000 0.00000             
Pb    core 17.667709 17.582892 -6.204531 1.75282400 1.00000 0.00000             
Pb    core 17.395103 18.061671 17.321191 1.75282400 1.00000 0.00000             
S     core 23.945137 0.5522245 -2.789974 -1.7528240 1.00000 0.00000             
Pb    core 24.060025 3.2187629 -2.784726 1.75282400 1.00000 0.00000             
Pb    core 23.928130 -2.644532 3.2434477 1.75282400 1.00000 0.00000             
S     core 8.8641009 -3.447658 -9.826868 -1.7528240 1.00000 0.00000             
S     core 5.6264157 -5.905044 -8.982268 -1.7528240 1.00000 0.00000             
S     core 5.2915376 -2.394703 -12.48422 -1.7528240 1.00000 0.00000             
Pb    core 5.8086981 -2.974428 -9.123263 1.75282400 1.00000 0.00000             
Pb    core 8.2770089 -6.123221 -9.284953 1.75282400 1.00000 0.00000             
Pb    core 7.9156998 -2.469034 -12.37688 1.75282400 1.00000 0.00000             
S     core 6.0860566 -2.399719 24.046215 -1.7528240 1.00000 0.00000             
Pb    core 8.7634057 -2.425000 23.982937 1.75282400 1.00000 0.00000             
S     core 9.1885206 -9.582101 -3.378067 -1.7528240 1.00000 0.00000             
S     core 5.8616607 -12.04973 -2.581398 -1.7528240 1.00000 0.00000             
S     core 5.8300592 -8.987074 -5.912752 -1.7528240 1.00000 0.00000             
Pb    core 5.8160146 -9.132442 -2.891337 1.75282400 1.00000 0.00000             
Pb    core 8.5189396 -12.21467 -2.525095 1.75282400 1.00000 0.00000             
Pb    core 8.4800023 -9.182635 -6.010804 1.75282400 1.00000 0.00000             
S     core 6.2239086 -8.659406 17.910307 -1.7528240 1.00000 0.00000             
Pb    core 8.9413383 -8.579615 18.058354 1.75282400 1.00000 0.00000             
S     core 5.9158514 17.341253 -9.409326 -1.7528240 1.00000 0.00000             
Pb    core 8.6394969 17.495947 -9.588837 1.75282400 1.00000 0.00000             
S     core 5.9908682 23.842111 -3.275869 -1.7528240 1.00000 0.00000             
Pb    core 8.6315099 24.008190 -3.261354 1.75282400 1.00000 0.00000             
S     core 2.7737730 2.8849080 -8.806264 -1.7528240 1.00000 0.00000             
S     core 0.3677821 -0.093869 -8.847473 -1.7528240 1.00000 0.00000             
S     core 2.1255651 0.0067849 -12.30000 -1.7528240 1.00000 0.00000             
S     core -0.510223 2.9294701 -11.78047 -1.7528240 1.00000 0.00000             
Pb    core -0.274699 2.8081057 -8.757985 1.75282400 1.00000 0.00000             
Pb    core 3.1251944 0.0489911 -8.976356 1.75282400 1.00000 0.00000             
Pb    core 2.3965678 2.8540895 -11.71165 1.75282400 1.00000 0.00000             
Pb    core -0.730217 0.1497934 -11.38116 1.75282400 1.00000 0.00000             
S     core 3.1699051 0.2914046 23.923311 -1.7528240 1.00000 0.00000             
S     core 0.2007328 3.2646493 23.914519 -1.7528240 1.00000 0.00000             
Pb    core 3.2465840 3.3372098 23.840329 1.75282400 1.00000 0.00000             
Pb    core 0.3779850 0.5135388 23.714851 1.75282400 1.00000 0.00000             
S     core 2.9845022 -3.201743 -3.196508 -1.7528240 1.00000 0.00000             
S     core -0.126944 -6.478634 -3.268679 -1.7528240 1.00000 0.00000             
S     core 2.6890861 -6.417350 -6.141915 -1.7528240 1.00000 0.00000             
S     core -0.148109 -3.001640 -5.938132 -1.7528240 1.00000 0.00000             
Pb    core -0.034099 -2.940724 -2.979892 1.75282400 1.00000 0.00000             
Pb    core 2.7424098 -6.097008 -3.051501 1.75282400 1.00000 0.00000             
Pb    core 2.7293388 -2.939986 -6.141610 1.75282400 1.00000 0.00000             
Pb    core -0.444209 -5.850616 -6.290802 1.75282400 1.00000 0.00000             
S     core 3.2760894 -2.603184 21.089648 -1.7528240 1.00000 0.00000             
S     core 0.8680993 -5.331833 21.427839 -1.7528240 1.00000 0.00000             
S     core 3.3745259 -5.763085 18.076710 -1.7528240 1.00000 0.00000             
S     core 0.1416819 -2.665436 18.171123 -1.7528240 1.00000 0.00000             
Pb    core 0.0714733 -2.711550 21.083882 1.75282400 1.00000 0.00000             
Pb    core 3.4570174 -5.585268 20.903391 1.75282400 1.00000 0.00000             
Pb    core 3.0184961 -2.841909 18.058951 1.75282400 1.00000 0.00000             
Pb    core -0.201071 -6.335624 18.925961 1.75282400 1.00000 0.00000             
S     core 3.2008486 -8.839617 3.0318665 -1.7528240 1.00000 0.00000             
S     core 0.4503889 -11.85720 3.1427078 -1.7528240 1.00000 0.00000             
S     core 3.1861030 -11.90425 0.3581212 -1.7528240 1.00000 0.00000             
S     core -0.052532 -9.054276 0.1138083 -1.7528240 1.00000 0.00000             
Pb    core 0.1811204 -8.948944 3.2361486 1.75282400 1.00000 0.00000             
Pb    core 3.2039142 -11.83321 3.3411389 1.75282400 1.00000 0.00000             
Pb    core 2.9513780 -8.987345 0.2107291 1.75282400 1.00000 0.00000             
Pb    core 0.2000594 -12.04966 0.4330204 1.75282400 1.00000 0.00000             
S     core 3.3779601 -8.895328 15.041151 -1.7528240 1.00000 0.00000             
S     core 0.6180971 -12.15142 14.825420 -1.7528240 1.00000 0.00000             
S     core 3.2569352 -11.70859 11.906401 -1.7528240 1.00000 0.00000             
S     core 0.1224788 -8.933429 11.754843 -1.7528240 1.00000 0.00000             
Pb    core -0.532376 -9.885331 16.096193 1.75282400 1.00000 0.00000             
Pb    core 3.2815444 -11.78496 14.873405 1.75282400 1.00000 0.00000             
Pb    core 2.9706366 -8.749365 12.212896 1.75282400 1.00000 0.00000             
Pb    core 0.3667446 -11.70084 12.166813 1.75282400 1.00000 0.00000             
S     core 3.1110470 14.547942 -9.014466 -1.7528240 1.00000 0.00000             
S     core 0.1249239 11.668724 -9.003937 -1.7528240 1.00000 0.00000             
S     core 2.9637538 11.484067 -12.08335 -1.7528240 1.00000 0.00000             
Pb    core -2.352379 16.704971 -10.02777 1.75282400 1.00000 0.00000             
Pb    core 2.9969739 11.617682 -9.118916 1.75282400 1.00000 0.00000             
Pb    core 0.3424171 14.530165 -8.977380 1.75282400 1.00000 0.00000             
Pb    core 0.1296422 11.872277 -11.87963 1.75282400 1.00000 0.00000             
S     core 3.1008433 12.652212 23.726625 -1.7528240 1.00000 0.00000             
Pb    core 3.4042748 15.484435 23.381834 1.75282400 1.00000 0.00000             
Pb    core 0.4472945 11.880329 23.925532 1.75282400 1.00000 0.00000             
S     core 3.0201717 21.041076 -3.404632 -1.7528240 1.00000 0.00000             
S     core 0.0398118 17.866361 -3.326549 -1.7528240 1.00000 0.00000             
S     core 3.0586606 17.724904 -6.431580 -1.7528240 1.00000 0.00000             
S     core 0.4919431 20.780970 -6.192172 -1.7528240 1.00000 0.00000             
Pb    core -0.060171 20.794315 -3.487760 1.75282400 1.00000 0.00000             
Pb    core 2.9611275 17.875088 -3.376147 1.75282400 1.00000 0.00000             
Pb    core 3.1180312 20.588061 -6.314546 1.75282400 1.00000 0.00000             
Pb    core -0.220598 18.073371 -6.659357 1.75282400 1.00000 0.00000             
S     core 1.2464852 17.043295 22.272043 -1.7528240 1.00000 0.00000             
S     core 3.2560674 18.029180 17.542546 -1.7528240 1.00000 0.00000             
S     core 0.8047699 19.801868 19.331809 -1.7528240 1.00000 0.00000             
Pb    core 3.0807346 18.128646 20.398928 1.75282400 1.00000 0.00000             
Pb    core 2.9310273 20.942039 17.741168 1.75282400 1.00000 0.00000             
Pb    core -1.028474 17.951590 20.587453 1.75282400 1.00000 0.00000             
S     core 0.6103360 23.930592 3.1910900 -1.7528240 1.00000 0.00000             
S     core 3.1081413 24.027142 -0.531124 -1.7528240 1.00000 0.00000             
Pb    core 3.5928392 24.195404 3.2849793 1.75282400 1.00000 0.00000             
Pb    core 0.6007544 24.003134 0.5475073 1.75282400 1.00000 0.00000             
S     core 2.6445312 23.722689 17.168687 -1.7528240 1.00000 0.00000             
S     core 3.2896146 23.903150 11.696589 -1.7528240 1.00000 0.00000             
Pb    core 5.2579084 23.988052 17.167073 1.75282400 1.00000 0.00000             
Pb    core 1.7176195 23.583072 14.604633 1.75282400 1.00000 0.00000             
S     core -2.811235 8.7860833 -8.942811 -1.7528240 1.00000 0.00000             
S     core -5.828885 5.9759135 -8.899553 -1.7528240 1.00000 0.00000             
S     core -2.925184 6.0124764 -11.99059 -1.7528240 1.00000 0.00000             
Pb    core -5.778681 8.7195751 -9.122927 1.75282400 1.00000 0.00000             
Pb    core -2.988103 5.9002194 -8.900535 1.75282400 1.00000 0.00000             
Pb    core -3.071855 8.7359237 -11.91118 1.75282400 1.00000 0.00000             
S     core -2.444954 6.3293307 23.900831 -1.7528240 1.00000 0.00000             
Pb    core -2.362193 9.0907212 23.950027 1.75282400 1.00000 0.00000             
S     core -2.849110 3.0036953 -2.937827 -1.7528240 1.00000 0.00000             
S     core -5.853028 0.0858122 -2.745981 -1.7528240 1.00000 0.00000             
S     core -2.809887 -0.088364 -5.968418 -1.7528240 1.00000 0.00000             
S     core -5.787076 3.2804969 -5.763809 -1.7528240 1.00000 0.00000             
Pb    core -5.807465 2.9849304 -2.915205 1.75282400 1.00000 0.00000             
Pb    core -3.009097 0.0610583 -2.953702 1.75282400 1.00000 0.00000             
Pb    core -3.038136 2.8188069 -5.900930 1.75282400 1.00000 0.00000             
Pb    core -8.415069 -1.144835 -6.009443 1.75282400 1.00000 0.00000             
S     core -2.711493 3.3170703 21.091322 -1.7528240 1.00000 0.00000             
S     core -5.491770 0.8834652 21.338855 -1.7528240 1.00000 0.00000             
S     core -2.642562 0.1496494 18.153463 -1.7528240 1.00000 0.00000             
S     core -5.845229 3.3243448 17.955000 -1.7528240 1.00000 0.00000             
Pb    core -5.682764 3.4848417 20.791916 1.75282400 1.00000 0.00000             
Pb    core -2.840118 0.1675816 21.084934 1.75282400 1.00000 0.00000             
Pb    core -2.898985 3.0396760 18.011372 1.75282400 1.00000 0.00000             
Pb    core -6.531119 -0.194475 18.906557 1.75282400 1.00000 0.00000             
S     core -2.850421 -2.942121 2.9014841 -1.7528240 1.00000 0.00000             
S     core -5.762125 -5.851587 2.8815181 -1.7528240 1.00000 0.00000             
S     core -2.921370 -6.206937 -0.129663 -1.7528240 1.00000 0.00000             
S     core -6.032564 -2.971928 -0.013885 -1.7528240 1.00000 0.00000             
Pb    core -5.951449 -2.934320 2.9841873 1.75282400 1.00000 0.00000             
Pb    core -2.900530 -5.880127 3.1030232 1.75282400 1.00000 0.00000             
Pb    core -3.060735 -2.997552 0.0582364 1.75282400 1.00000 0.00000             
Pb    core -6.180462 -5.928133 -0.123311 1.75282400 1.00000 0.00000             
S     core -2.769841 -2.755250 15.024282 -1.7528240 1.00000 0.00000             
S     core -5.574454 -5.540977 15.275679 -1.7528240 1.00000 0.00000             
S     core -3.059750 -5.934790 11.936482 -1.7528240 1.00000 0.00000             
S     core -5.839273 -2.897140 11.835183 -1.7528240 1.00000 0.00000             
Pb    core -6.089283 -2.680062 15.358829 1.75282400 1.00000 0.00000             
Pb    core -2.764376 -6.116471 15.295791 1.75282400 1.00000 0.00000             
Pb    core -2.983646 -2.958099 12.214565 1.75282400 1.00000 0.00000             
Pb    core -6.139824 -5.728114 12.606025 1.75282400 1.00000 0.00000             
S     core -2.646775 -8.703003 8.8322026 -1.7528240 1.00000 0.00000             
S     core -2.579290 -11.74217 6.2198407 -1.7528240 1.00000 0.00000             
S     core -5.569197 -9.055802 5.5802754 -1.7528240 1.00000 0.00000             
Pb    core -5.545451 -8.991294 8.6412012 1.75282400 1.00000 0.00000             
Pb    core -2.656315 -11.66523 8.9896416 1.75282400 1.00000 0.00000             
Pb    core -2.667002 -8.713647 6.0771133 1.75282400 1.00000 0.00000             
S     core -2.893925 14.953813 -3.170388 -1.7528240 1.00000 0.00000             
S     core -5.952866 11.916912 -3.124635 -1.7528240 1.00000 0.00000             
S     core -2.969699 11.889031 -6.299897 -1.7528240 1.00000 0.00000             
S     core -5.685928 14.727632 -6.146474 -1.7528240 1.00000 0.00000             
Pb    core -6.225104 14.873365 -3.299922 1.75282400 1.00000 0.00000             
Pb    core -3.001538 11.927480 -3.152694 1.75282400 1.00000 0.00000             
Pb    core -2.912755 14.719693 -6.005416 1.75282400 1.00000 0.00000             
Pb    core -6.196856 11.971594 -6.156262 1.75282400 1.00000 0.00000             
S     core -2.202565 15.266430 20.778448 -1.7528240 1.00000 0.00000             
S     core -7.633292 10.827505 19.732598 -1.7528240 1.00000 0.00000             
S     core -2.852182 12.019555 18.062396 -1.7528240 1.00000 0.00000             
S     core -5.661447 14.942980 17.671241 -1.7528240 1.00000 0.00000             
Pb    core -2.564607 12.447947 21.252342 1.75282400 1.00000 0.00000             
Pb    core -2.673987 14.996922 18.034705 1.75282400 1.00000 0.00000             
Pb    core -5.781455 12.154564 18.076750 1.75282400 1.00000 0.00000             
S     core -2.855607 20.894467 2.6026826 -1.7528240 1.00000 0.00000             
S     core -6.612803 19.056656 1.8516440 -1.7528240 1.00000 0.00000             
S     core -2.895316 17.930646 -0.182730 -1.7528240 1.00000 0.00000             
Pb    core -5.572306 21.183253 3.2914102 1.75282400 1.00000 0.00000             
Pb    core -2.667247 17.889129 2.7045312 1.75282400 1.00000 0.00000             
Pb    core -2.587993 20.794652 -0.142964 1.75282400 1.00000 0.00000             
Pb    core -5.795373 17.942274 -0.637893 1.75282400 1.00000 0.00000             
S     core -2.577037 20.513003 14.909633 -1.7528240 1.00000 0.00000             
S     core -5.662778 17.886032 15.089994 -1.7528240 1.00000 0.00000             
S     core -2.779096 17.774580 12.053491 -1.7528240 1.00000 0.00000             
S     core -4.278847 21.608246 11.178185 -1.7528240 1.00000 0.00000             
Pb    core -2.697630 17.721786 15.063548 1.75282400 1.00000 0.00000             
Pb    core -2.061510 22.295500 12.917047 1.75282400 1.00000 0.00000             
Pb    core -4.746162 19.647434 13.122330 1.75282400 1.00000 0.00000             
Pb    core 0.5718386 24.558857 10.941133 1.75282400 1.00000 0.00000             
S     core -9.179251 8.9466492 -3.078594 -1.7528240 1.00000 0.00000             
S     core -11.83252 5.6579101 -2.857808 -1.7528240 1.00000 0.00000             
S     core -8.726166 5.8054585 -5.852051 -1.7528240 1.00000 0.00000             
Pb    core -11.91421 8.2799568 -2.898354 1.75282400 1.00000 0.00000             
Pb    core -8.839078 5.8385834 -2.967445 1.75282400 1.00000 0.00000             
Pb    core -8.806216 8.5231956 -6.027910 1.75282400 1.00000 0.00000             
S     core -8.713054 6.2056195 17.665960 -1.7528240 1.00000 0.00000             
Pb    core -8.519199 8.8961680 18.033552 1.75282400 1.00000 0.00000             
S     core -8.791190 3.0535436 2.9314485 -1.7528240 1.00000 0.00000             
S     core -11.84692 0.2687829 3.1366217 -1.7528240 1.00000 0.00000             
S     core -8.938442 0.0941706 0.0578462 -1.7528240 1.00000 0.00000             
S     core -11.79330 2.8153132 -0.234768 -1.7528240 1.00000 0.00000             
Pb    core -11.81194 3.0950900 3.2299088 1.75282400 1.00000 0.00000             
Pb    core -8.872600 0.0595806 3.0522867 1.75282400 1.00000 0.00000             
Pb    core -8.821976 3.0175081 0.0950492 1.75282400 1.00000 0.00000             
Pb    core -11.91879 0.0898465 0.3699322 1.75282400 1.00000 0.00000             
S     core -8.988225 3.2798839 14.826352 -1.7528240 1.00000 0.00000             
S     core -12.21944 0.5740521 14.495500 -1.7528240 1.00000 0.00000             
S     core -8.978994 -0.002907 11.643519 -1.7528240 1.00000 0.00000             
S     core -11.81213 3.2639849 11.591320 -1.7528240 1.00000 0.00000             
Pb    core -11.88521 3.2495143 14.545974 1.75282400 1.00000 0.00000             
Pb    core -9.904664 -0.385358 15.820015 1.75282400 1.00000 0.00000             
Pb    core -8.829217 2.9656258 11.916718 1.75282400 1.00000 0.00000             
Pb    core -11.77648 0.4605177 11.823005 1.75282400 1.00000 0.00000             
S     core -9.005391 -2.900553 8.7955639 -1.7528240 1.00000 0.00000             
S     core -8.663423 -5.777660 5.8829266 -1.7528240 1.00000 0.00000             
S     core -11.80951 -2.639655 5.8669011 -1.7528240 1.00000 0.00000             
Pb    core -11.77594 -2.706622 8.5898189 1.75282400 1.00000 0.00000             
Pb    core -8.584129 -5.789178 8.6977792 1.75282400 1.00000 0.00000             
Pb    core -8.842643 -2.876652 5.9220167 1.75282400 1.00000 0.00000             
S     core -9.620822 15.636044 2.3347700 -1.7528240 1.00000 0.00000             
S     core -11.88850 12.128269 2.9145674 -1.7528240 1.00000 0.00000             
S     core -9.097951 11.898002 -0.021751 -1.7528240 1.00000 0.00000             
Pb    core -12.02567 14.830653 3.4747729 1.75282400 1.00000 0.00000             
Pb    core -8.893031 11.783683 3.0094053 1.75282400 1.00000 0.00000             
Pb    core -8.807480 14.741357 -0.139240 1.75282400 1.00000 0.00000             
Pb    core -11.82279 11.500552 0.3045678 1.75282400 1.00000 0.00000             
S     core -10.70634 13.714536 13.706076 -1.7528240 1.00000 0.00000             
S     core -8.683276 11.863804 11.762848 -1.7528240 1.00000 0.00000             
Pb    core -8.721674 12.114157 14.672575 1.75282400 1.00000 0.00000             
Pb    core -9.010309 15.206421 11.971226 1.75282400 1.00000 0.00000             
Pb    core -11.56452 11.985633 11.810037 1.75282400 1.00000 0.00000             
S     core -8.530748 17.961163 5.8837308 -1.7528240 1.00000 0.00000             
Pb    core -8.587794 17.952027 8.8823175 1.75282400 1.00000 0.00000             
S     core 14.950638 2.7545222 -9.382703 -1.7528240 1.00000 0.00000             
S     core 11.764802 -0.085482 -9.267366 -1.7528240 1.00000 0.00000             
S     core 12.474212 2.8176598 -12.24296 -1.7528240 1.00000 0.00000             
Pb    core 11.894486 2.8566237 -9.162868 1.75282400 1.00000 0.00000             
Pb    core 15.179042 -0.357095 -9.024452 1.75282400 1.00000 0.00000             
Pb    core 15.115744 3.4428547 -12.12787 1.75282400 1.00000 0.00000             
Pb    core 11.745490 0.2815541 -12.04816 1.75282400 1.00000 0.00000             
S     core 12.034011 3.3810882 23.888480 -1.7528240 1.00000 0.00000             
Pb    core 14.748031 3.8631189 23.932774 1.75282400 1.00000 0.00000             
Pb    core 11.892849 0.5965258 23.692050 1.75282400 1.00000 0.00000             
S     core 14.755504 -3.015763 -3.088062 -1.7528240 1.00000 0.00000             
S     core 11.823606 -6.318491 -3.118962 -1.7528240 1.00000 0.00000             
S     core 14.767243 -6.160186 -5.785308 -1.7528240 1.00000 0.00000             
S     core 11.619999 -3.234027 -6.161049 -1.7528240 1.00000 0.00000             
Pb    core 11.893792 -2.969725 -3.071183 1.75282400 1.00000 0.00000             
Pb    core 14.822327 -5.816870 -2.966143 1.75282400 1.00000 0.00000             
Pb    core 14.830204 -3.217634 -6.369345 1.75282400 1.00000 0.00000             
Pb    core 12.080706 -6.040644 -6.006212 1.75282400 1.00000 0.00000             
S     core 13.817959 -1.160743 23.015302 -1.7528240 1.00000 0.00000             
S     core 11.633480 -5.279044 21.352706 -1.7528240 1.00000 0.00000             
S     core 15.098601 -5.563823 17.948203 -1.7528240 1.00000 0.00000             
S     core 12.198055 -2.623195 18.112821 -1.7528240 1.00000 0.00000             
Pb    core 12.176555 -2.580178 21.146343 1.75282400 1.00000 0.00000             
Pb    core 15.017436 -2.734689 17.877185 1.75282400 1.00000 0.00000             
Pb    core 12.479507 -6.244343 18.860130 1.75282400 1.00000 0.00000             
S     core 15.648877 -9.889018 2.4356908 -1.7528240 1.00000 0.00000             
S     core 12.026671 -11.91213 3.1298045 -1.7528240 1.00000 0.00000             
S     core 11.811698 -8.900121 0.2334808 -1.7528240 1.00000 0.00000             
Pb    core 11.886073 -8.876192 3.2137090 1.75282400 1.00000 0.00000             
Pb    core 14.772439 -12.20570 3.6646229 1.75282400 1.00000 0.00000             
Pb    core 14.776120 -9.172596 -0.068120 1.75282400 1.00000 0.00000             
Pb    core 11.846190 -11.84686 0.3791721 1.75282400 1.00000 0.00000             
S     core 13.533637 -10.76108 14.001422 -1.7528240 1.00000 0.00000             
S     core 16.799853 -10.73962 10.770569 -1.7528240 1.00000 0.00000             
S     core 11.932465 -8.693080 11.896815 -1.7528240 1.00000 0.00000             
Pb    core 12.127412 -8.804098 15.366925 1.75282400 1.00000 0.00000             
Pb    core 14.951201 -9.136488 12.193109 1.75282400 1.00000 0.00000             
Pb    core 11.901056 -11.56523 12.058895 1.75282400 1.00000 0.00000             
S     core 14.137182 11.446107 -12.25536 -1.7528240 1.00000 0.00000             
S     core 11.692709 11.847374 -9.505217 -1.7528240 1.00000 0.00000             
Pb    core 11.525083 14.695715 -9.490450 1.75282400 1.00000 0.00000             
Pb    core 14.546093 11.597133 -9.556941 1.75282400 1.00000 0.00000             
Pb    core 11.397443 11.321641 -12.43055 1.75282400 1.00000 0.00000             
S     core 14.668795 12.099887 23.778204 -1.7528240 1.00000 0.00000             
Pb    core 11.942185 12.057310 23.632244 1.75282400 1.00000 0.00000             
S     core 14.440411 20.899381 -3.079614 -1.7528240 1.00000 0.00000             
S     core 11.744913 17.829155 -3.484484 -1.7528240 1.00000 0.00000             
S     core 14.842148 17.553094 -6.368844 -1.7528240 1.00000 0.00000             
Pb    core 11.843113 20.617633 -3.031593 1.75282400 1.00000 0.00000             
Pb    core 15.057698 18.118545 -3.325504 1.75282400 1.00000 0.00000             
Pb    core 12.129706 17.635079 -6.241294 1.75282400 1.00000 0.00000             