# 
# Keywords:
# 
conp opti  
# 
# Options:
# 
cartesian 
S     core 3.8869245 -2.635108 -9.054710 -1.7528240 1.00000 0.00000             
Pb    core 1.3604011 0.8199910 -12.31522 1.75282400 1.00000 0.00000             
Pb    core 3.9177956 -5.281515 -9.321071 1.75282400 1.00000 0.00000             
S     core 3.3011012 -8.999843 -3.299478 -1.7528240 1.00000 0.00000             
Pb    core 1.5241902 -10.79242 -1.961578 1.75282400 1.00000 0.00000             
Pb    core 3.7342288 -8.811493 -6.007685 1.75282400 1.00000 0.00000             
Pb    core 2.6021862 -9.138263 17.201657 1.75282400 1.00000 0.00000             
Pb    core 4.2256158 18.353380 -9.073597 1.75282400 1.00000 0.00000             
S     core -2.281119 3.5798968 -9.269999 -1.7528240 1.00000 0.00000             
Pb    core -7.313734 4.2691477 -8.149787 1.75282400 1.00000 0.00000             
Pb    core -2.135759 0.9185796 -9.304550 1.75282400 1.00000 0.00000             
S     core -2.490629 -2.716700 -3.516538 -1.7528240 1.00000 0.00000             
S     core -5.401533 -5.727021 -3.209795 -1.7528240 1.00000 0.00000             
S     core -2.009520 -5.617383 -6.555406 -1.7528240 1.00000 0.00000             
S     core -5.238399 -2.255554 -6.537687 -1.7528240 1.00000 0.00000             
Pb    core -5.491447 -2.801346 -3.763559 1.75282400 1.00000 0.00000             
Pb    core -2.726640 -5.590898 -3.876475 1.75282400 1.00000 0.00000             
Pb    core -2.507718 -2.811012 -6.515237 1.75282400 1.00000 0.00000             
S     core -2.243023 -4.793062 19.368190 -1.7528240 1.00000 0.00000             
S     core -6.337967 -2.835042 17.042529 -1.7528240 1.00000 0.00000             
Pb    core -3.584145 -2.960737 17.531858 1.75282400 1.00000 0.00000             
S     core -3.388418 -8.580948 2.1954673 -1.7528240 1.00000 0.00000             
Pb    core -6.152665 -8.719822 2.3349797 1.75282400 1.00000 0.00000             
Pb    core -2.423765 -8.579249 -0.375887 1.75282400 1.00000 0.00000             
Pb    core -3.466310 -8.790485 10.758204 1.75282400 1.00000 0.00000             
Pb    core -1.976949 11.658768 -9.293513 1.75282400 1.00000 0.00000             
S     core -5.344131 17.959971 -2.873904 -1.7528240 1.00000 0.00000             
S     core -2.061660 17.964458 -6.147945 -1.7528240 1.00000 0.00000             
Pb    core -2.558889 18.058693 -3.409816 1.75282400 1.00000 0.00000             
S     core -3.051473 17.660313 17.424494 -1.7528240 1.00000 0.00000             
S     core -8.832158 3.3067846 -3.105400 -1.7528240 1.00000 0.00000             
Pb    core -10.62909 1.5314720 -2.179154 1.75282400 1.00000 0.00000             
Pb    core -9.791339 3.1452223 17.130461 1.75282400 1.00000 0.00000             
S     core -8.545229 -2.391727 2.1493208 -1.7528240 1.00000 0.00000             
Pb    core -9.658272 -4.826884 2.5718886 1.75282400 1.00000 0.00000             
Pb    core -10.84299 -1.140792 0.9124814 1.75282400 1.00000 0.00000             
Pb    core -12.28223 0.3440959 10.471374 1.75282400 1.00000 0.00000             
Pb    core -10.09740 10.767579 -2.838716 1.75282400 1.00000 0.00000             
Pb    core 12.257977 0.6728393 -11.76045 1.75282400 1.00000 0.00000             
Pb    core 11.619690 -11.90118 0.4734257 1.75282400 1.00000 0.00000             
S     core 17.026666 -7.876456 -1.041946 -1.7528240 1.00000 0.00000             
S     core 18.352112 -2.631443 -5.173264 -1.7528240 1.00000 0.00000             
Pb    core 18.134257 -2.804308 -2.476943 1.75282400 1.00000 0.00000             
S     core 19.350056 -1.975386 17.105276 -1.7528240 1.00000 0.00000             
Pb    core 17.824864 -8.844015 3.6063084 1.75282400 1.00000 0.00000             
S     core 18.320160 17.990489 -1.554284 -1.7528240 1.00000 0.00000             
S     core 9.4164528 -2.721033 -8.774281 -1.7528240 1.00000 0.00000             
S     core 6.6234532 -5.556486 -9.118640 -1.7528240 1.00000 0.00000             
Pb    core 6.6540722 -2.506284 -8.913755 1.75282400 1.00000 0.00000             
Pb    core 9.3488631 -5.373965 -9.047759 1.75282400 1.00000 0.00000             
S     core 8.9807865 -8.729010 -2.962802 -1.7528240 1.00000 0.00000             
S     core 6.4170276 -8.839589 -5.908572 -1.7528240 1.00000 0.00000             
Pb    core 6.1993077 -8.709201 -2.979962 1.75282400 1.00000 0.00000             
Pb    core 9.1371526 -8.918579 -5.630469 1.75282400 1.00000 0.00000             
S     core 5.2062348 -8.960691 17.648177 -1.7528240 1.00000 0.00000             
Pb    core 6.9625723 -7.945754 19.534722 1.75282400 1.00000 0.00000             
S     core 6.8249516 18.283595 -8.848683 -1.7528240 1.00000 0.00000             
S     core 3.7221330 3.2588900 -9.105428 -1.7528240 1.00000 0.00000             
S     core 0.5568927 0.5346838 -9.654522 -1.7528240 1.00000 0.00000             
S     core 4.0469364 0.6127932 -12.20593 -1.7528240 1.00000 0.00000             
S     core 1.1508600 3.5067591 -12.31512 -1.7528240 1.00000 0.00000             
Pb    core 0.6887104 3.5475287 -9.338954 1.75282400 1.00000 0.00000             
Pb    core 3.6084666 0.2823226 -9.255108 1.75282400 1.00000 0.00000             
Pb    core 4.0068092 3.5929918 -12.02459 1.75282400 1.00000 0.00000             
S     core 2.3968784 -0.000016 23.638402 -1.7528240 1.00000 0.00000             
S     core -0.853967 3.1301052 23.343696 -1.7528240 1.00000 0.00000             
Pb    core 2.1294897 2.7796148 23.680233 1.75282400 1.00000 0.00000             
S     core 3.3883206 -2.863420 -3.289091 -1.7528240 1.00000 0.00000             
S     core 0.3853242 -5.636232 -3.385318 -1.7528240 1.00000 0.00000             
S     core 3.2596479 -6.191821 -6.701425 -1.7528240 1.00000 0.00000             
S     core 0.6038780 -2.615720 -6.202290 -1.7528240 1.00000 0.00000             
Pb    core 0.3946838 -2.638501 -3.333202 1.75282400 1.00000 0.00000             
Pb    core 3.2460752 -5.793691 -3.194253 1.75282400 1.00000 0.00000             
Pb    core 3.4872352 -2.525557 -6.230967 1.75282400 1.00000 0.00000             
Pb    core 0.5755561 -5.376101 -6.201655 1.75282400 1.00000 0.00000             
S     core 2.1131984 -3.234107 20.393284 -1.7528240 1.00000 0.00000             
S     core 1.9373909 -6.510260 17.848163 -1.7528240 1.00000 0.00000             
S     core -0.516752 -2.801765 17.328572 -1.7528240 1.00000 0.00000             
Pb    core -0.666358 -2.749005 20.270339 1.75282400 1.00000 0.00000             
Pb    core 2.3526740 -5.923971 20.579644 1.75282400 1.00000 0.00000             
Pb    core 2.3654022 -2.847877 17.525973 1.75282400 1.00000 0.00000             
Pb    core -0.665129 -5.632371 17.326825 1.75282400 1.00000 0.00000             
S     core 3.0339146 -8.748878 2.7028448 -1.7528240 1.00000 0.00000             
S     core 0.1444363 -11.71177 2.6112058 -1.7528240 1.00000 0.00000             
S     core 3.4865183 -11.63627 -0.353338 -1.7528240 1.00000 0.00000             
S     core 0.2623021 -8.823604 -0.484468 -1.7528240 1.00000 0.00000             
Pb    core 0.1143503 -8.944635 2.5412463 1.75282400 1.00000 0.00000             
Pb    core 2.9802956 -11.81566 2.5643332 1.75282400 1.00000 0.00000             
Pb    core 3.2770386 -8.675525 -0.127799 1.75282400 1.00000 0.00000             
S     core 2.2654122 -9.134895 14.533657 -1.7528240 1.00000 0.00000             
S     core 2.1261902 -11.67900 11.382523 -1.7528240 1.00000 0.00000             
S     core -0.913634 -8.859433 11.515503 -1.7528240 1.00000 0.00000             
Pb    core 0.4112378 -10.71489 13.071423 1.75282400 1.00000 0.00000             
Pb    core 2.9522218 -9.048189 11.474154 1.75282400 1.00000 0.00000             
S     core 3.8180302 15.605523 -8.725695 -1.7528240 1.00000 0.00000             
S     core 0.6580708 12.362748 -9.012933 -1.7528240 1.00000 0.00000             
S     core 4.2578526 12.306271 -11.86151 -1.7528240 1.00000 0.00000             
Pb    core 1.2244005 14.991125 -9.049705 1.75282400 1.00000 0.00000             
Pb    core 3.8256211 12.273123 -9.131013 1.75282400 1.00000 0.00000             
S     core 2.3207186 11.524651 23.880971 -1.7528240 1.00000 0.00000             
S     core 3.4755813 21.165529 -2.974724 -1.7528240 1.00000 0.00000             
S     core 0.5993640 18.012137 -3.122959 -1.7528240 1.00000 0.00000             
S     core 2.5924900 19.505887 -7.233428 -1.7528240 1.00000 0.00000             
Pb    core 1.7457126 22.968563 -1.719449 1.75282400 1.00000 0.00000             
Pb    core 3.5411648 18.264405 -2.689641 1.75282400 1.00000 0.00000             
Pb    core 3.9017503 21.352326 -5.711656 1.75282400 1.00000 0.00000             
Pb    core 0.5630300 18.218754 -5.932070 1.75282400 1.00000 0.00000             
S     core 0.6341672 17.823236 20.442248 -1.7528240 1.00000 0.00000             
Pb    core 2.4183077 16.916910 22.280921 1.75282400 1.00000 0.00000             
Pb    core 2.9396804 19.584314 19.463172 1.75282400 1.00000 0.00000             
Pb    core -0.409230 17.961935 17.709453 1.75282400 1.00000 0.00000             
S     core 0.6457872 24.140248 3.4128261 -1.7528240 1.00000 0.00000             
S     core 3.3415975 23.904328 0.1239818 -1.7528240 1.00000 0.00000             
Pb    core 3.4770384 24.199660 2.8806590 1.75282400 1.00000 0.00000             
S     core 3.2342796 22.248920 14.108477 -1.7528240 1.00000 0.00000             
S     core -2.083672 9.0277541 -9.109511 -1.7528240 1.00000 0.00000             
S     core -5.930877 6.4886715 -8.859534 -1.7528240 1.00000 0.00000             
Pb    core -2.995847 6.4059468 -9.216342 1.75282400 1.00000 0.00000             
S     core -2.511387 3.2122913 -3.412449 -1.7528240 1.00000 0.00000             
S     core -5.399574 0.2427333 -3.496072 -1.7528240 1.00000 0.00000             
S     core -2.384849 0.2857897 -6.627298 -1.7528240 1.00000 0.00000             
S     core -5.407166 3.1260649 -6.479804 -1.7528240 1.00000 0.00000             
Pb    core -5.848164 3.2112899 -3.489602 1.75282400 1.00000 0.00000             
Pb    core -2.510555 0.2855970 -3.459338 1.75282400 1.00000 0.00000             
Pb    core -2.422085 3.3800226 -6.353824 1.75282400 1.00000 0.00000             
Pb    core -5.286494 0.3835819 -6.228663 1.75282400 1.00000 0.00000             
S     core -3.763430 2.9920552 20.579287 -1.7528240 1.00000 0.00000             
S     core -3.553111 0.0373215 17.315719 -1.7528240 1.00000 0.00000             
S     core -7.641539 1.9606458 18.376002 -1.7528240 1.00000 0.00000             
Pb    core -6.545563 3.3709004 20.421743 1.75282400 1.00000 0.00000             
Pb    core -2.454136 1.1886119 22.384007 1.75282400 1.00000 0.00000             
Pb    core -3.386074 2.9206719 17.571281 1.75282400 1.00000 0.00000             
Pb    core -6.340778 -0.189946 17.297600 1.75282400 1.00000 0.00000             
S     core -2.887650 -2.884138 2.4542563 -1.7528240 1.00000 0.00000             
S     core -6.831066 -6.085488 1.8639005 -1.7528240 1.00000 0.00000             
S     core -2.772252 -5.861251 -0.452476 -1.7528240 1.00000 0.00000             
S     core -5.446241 -2.648816 -0.644073 -1.7528240 1.00000 0.00000             
Pb    core -5.779056 -2.490602 2.1741757 1.75282400 1.00000 0.00000             
Pb    core -2.746433 -5.719920 2.4274244 1.75282400 1.00000 0.00000             
Pb    core -2.620003 -2.697636 -0.615358 1.75282400 1.00000 0.00000             
Pb    core -5.740355 -5.336329 -0.634064 1.75282400 1.00000 0.00000             
S     core -3.345394 -3.069120 14.388726 -1.7528240 1.00000 0.00000             
S     core -6.039367 -6.135247 13.802572 -1.7528240 1.00000 0.00000             
S     core -3.523549 -5.979847 11.068133 -1.7528240 1.00000 0.00000             
S     core -6.193394 -2.923818 11.332671 -1.7528240 1.00000 0.00000             
Pb    core -6.226344 -3.328873 14.352757 1.75282400 1.00000 0.00000             
Pb    core -3.372216 -5.885051 13.947526 1.75282400 1.00000 0.00000             
Pb    core -3.307727 -2.904577 11.331501 1.75282400 1.00000 0.00000             
Pb    core -6.584625 -5.700202 11.213221 1.75282400 1.00000 0.00000             
S     core -4.012324 -8.580879 8.1342176 -1.7528240 1.00000 0.00000             
S     core -6.135319 -8.737165 4.9860471 -1.7528240 1.00000 0.00000             
Pb    core -6.725730 -8.864839 7.5817217 1.75282400 1.00000 0.00000             
Pb    core -3.220366 -8.755001 5.2764000 1.75282400 1.00000 0.00000             
S     core -2.408234 15.096432 -3.246678 -1.7528240 1.00000 0.00000             
S     core -5.248420 12.204710 -3.316626 -1.7528240 1.00000 0.00000             
S     core -2.294222 12.238911 -6.483198 -1.7528240 1.00000 0.00000             
S     core -5.277589 14.637275 -6.363295 -1.7528240 1.00000 0.00000             
Pb    core -5.378984 15.227876 -3.609639 1.75282400 1.00000 0.00000             
Pb    core -2.390759 12.163806 -3.270476 1.75282400 1.00000 0.00000             
Pb    core -2.566614 15.273167 -6.207341 1.75282400 1.00000 0.00000             
Pb    core -5.173928 12.006404 -6.085379 1.75282400 1.00000 0.00000             
S     core -3.437124 12.063594 17.409357 -1.7528240 1.00000 0.00000             
S     core -6.645707 14.510472 17.173362 -1.7528240 1.00000 0.00000             
Pb    core -2.075843 10.752069 22.676254 1.75282400 1.00000 0.00000             
Pb    core -3.875612 15.071461 17.391707 1.75282400 1.00000 0.00000             
Pb    core -6.232789 11.918773 17.199796 1.75282400 1.00000 0.00000             
S     core -2.581487 20.934647 2.9227009 -1.7528240 1.00000 0.00000             
S     core -5.562800 18.040440 2.4779701 -1.7528240 1.00000 0.00000             
S     core -2.522612 18.274170 -0.277855 -1.7528240 1.00000 0.00000             
Pb    core -7.357526 19.893402 3.4092468 1.75282400 1.00000 0.00000             
Pb    core -2.594975 18.078120 2.8100090 1.75282400 1.00000 0.00000             
Pb    core -2.242353 21.029546 0.2834654 1.75282400 1.00000 0.00000             
Pb    core -5.299367 17.800362 -0.248444 1.75282400 1.00000 0.00000             
S     core -6.182948 17.974273 13.986735 -1.7528240 1.00000 0.00000             
S     core -3.067158 17.789393 11.667534 -1.7528240 1.00000 0.00000             
Pb    core -3.423033 17.966153 14.653643 1.75282400 1.00000 0.00000             
Pb    core -1.791699 22.674376 10.595168 1.75282400 1.00000 0.00000             
Pb    core -5.815644 17.869487 11.362642 1.75282400 1.00000 0.00000             
S     core -8.377304 9.1419017 -4.250438 -1.7528240 1.00000 0.00000             
S     core -8.390317 5.8924362 -6.314183 -1.7528240 1.00000 0.00000             
Pb    core -8.685632 6.2170084 -3.510497 1.75282400 1.00000 0.00000             
Pb    core -7.695515 8.4026259 -7.043884 1.75282400 1.00000 0.00000             
S     core -9.317285 5.6991071 17.093172 -1.7528240 1.00000 0.00000             
S     core -8.736238 3.2586094 2.3897521 -1.7528240 1.00000 0.00000             
S     core -11.46379 -2.308564 3.4181739 -1.7528240 1.00000 0.00000             
S     core -8.762072 0.4534250 -0.388098 -1.7528240 1.00000 0.00000             
S     core -11.97803 1.3028542 0.2649612 -1.7528240 1.00000 0.00000             
Pb    core -11.81860 3.4656574 2.0703278 1.75282400 1.00000 0.00000             
Pb    core -8.383481 0.4847611 2.3923400 1.75282400 1.00000 0.00000             
Pb    core -8.309221 3.4262310 -0.394964 1.75282400 1.00000 0.00000             
S     core -9.336346 2.6515332 14.448404 -1.7528240 1.00000 0.00000             
S     core -9.574903 0.1113941 11.220061 -1.7528240 1.00000 0.00000             
S     core -12.30701 3.0224333 10.779854 -1.7528240 1.00000 0.00000             
Pb    core -9.168613 0.0161775 13.857384 1.75282400 1.00000 0.00000             
Pb    core -9.394858 3.0991020 11.218808 1.75282400 1.00000 0.00000             
S     core -8.971002 -2.806175 7.9026978 -1.7528240 1.00000 0.00000             
S     core -9.104996 -5.568389 5.1472932 -1.7528240 1.00000 0.00000             
Pb    core -9.719782 -5.393755 7.8023983 1.75282400 1.00000 0.00000             
Pb    core -9.009347 -2.556948 5.0609303 1.75282400 1.00000 0.00000             
S     core -8.571116 14.941301 2.4213975 -1.7528240 1.00000 0.00000             
S     core -11.79493 11.678205 2.4103348 -1.7528240 1.00000 0.00000             
S     core -8.559310 11.990168 -0.796688 -1.7528240 1.00000 0.00000             
Pb    core -9.015821 12.035201 2.3854264 1.75282400 1.00000 0.00000             
Pb    core -8.537240 14.651203 -0.231013 1.75282400 1.00000 0.00000             
S     core -9.147033 12.189075 11.450860 -1.7528240 1.00000 0.00000             
Pb    core -9.291871 11.678234 14.113208 1.75282400 1.00000 0.00000             
Pb    core -9.235538 14.798963 10.670253 1.75282400 1.00000 0.00000             
S     core -8.530948 18.305268 5.3052739 -1.7528240 1.00000 0.00000             
S     core 15.424876 3.2705921 -8.364367 -1.7528240 1.00000 0.00000             
S     core 12.749021 0.3446597 -9.023790 -1.7528240 1.00000 0.00000             
S     core 12.496835 3.3623144 -11.74826 -1.7528240 1.00000 0.00000             
Pb    core 12.610427 3.3724929 -8.743052 1.75282400 1.00000 0.00000             
Pb    core 15.401407 0.6317553 -8.390297 1.75282400 1.00000 0.00000             
S     core 10.974691 2.9852009 24.007729 -1.7528240 1.00000 0.00000             
S     core 15.320224 -2.979325 -2.524507 -1.7528240 1.00000 0.00000             
S     core 12.186649 -5.752839 -2.706879 -1.7528240 1.00000 0.00000             
S     core 15.038829 -5.890428 -5.389291 -1.7528240 1.00000 0.00000             
S     core 12.450233 -2.821406 -5.576391 -1.7528240 1.00000 0.00000             
Pb    core 12.345839 -2.820773 -2.691149 1.75282400 1.00000 0.00000             
Pb    core 15.164760 -6.131175 -2.633791 1.75282400 1.00000 0.00000             
Pb    core 15.537835 -3.141457 -5.491088 1.75282400 1.00000 0.00000             
Pb    core 12.394400 -5.614101 -5.519848 1.75282400 1.00000 0.00000             
S     core 12.732438 -5.033104 19.866615 -1.7528240 1.00000 0.00000             
S     core 11.056116 -2.981428 17.847539 -1.7528240 1.00000 0.00000             
Pb    core 10.852093 -3.182419 20.841760 1.75282400 1.00000 0.00000             
Pb    core 13.858649 -3.153764 18.182026 1.75282400 1.00000 0.00000             
Pb    core 10.908639 -5.875792 17.976687 1.75282400 1.00000 0.00000             
S     core 15.078714 -8.853277 3.2437043 -1.7528240 1.00000 0.00000             
S     core 11.665297 -11.97045 3.2009535 -1.7528240 1.00000 0.00000             
S     core 12.168595 -9.166398 0.3282778 -1.7528240 1.00000 0.00000             
Pb    core 11.965432 -8.997134 3.2291328 1.75282400 1.00000 0.00000             
Pb    core 14.864566 -8.652957 0.3949481 1.75282400 1.00000 0.00000             
S     core 11.566183 -9.078489 12.119566 -1.7528240 1.00000 0.00000             
Pb    core 10.194595 -10.93582 13.789014 1.75282400 1.00000 0.00000             
Pb    core 14.175310 -9.261446 11.608999 1.75282400 1.00000 0.00000             
S     core 12.889357 12.320045 -8.387436 -1.7528240 1.00000 0.00000             
Pb    core 12.240885 15.041300 -8.414864 1.75282400 1.00000 0.00000             
Pb    core 15.498958 11.777324 -8.361193 1.75282400 1.00000 0.00000             
S     core 12.688363 17.851018 -2.305600 -1.7528240 1.00000 0.00000             
S     core 15.310837 18.100309 -5.213908 -1.7528240 1.00000 0.00000             
Pb    core 11.257950 22.867077 -1.396324 1.75282400 1.00000 0.00000             
Pb    core 15.601755 17.998221 -2.449563 1.75282400 1.00000 0.00000             
Pb    core 12.647771 18.114743 -5.096012 1.75282400 1.00000 0.00000             
S     core 14.020702 17.242379 18.809610 -1.7528240 1.00000 0.00000             
Pb    core 11.403011 17.536685 18.261812 1.75282400 1.00000 0.00000             
S     core 11.863457 24.272683 4.6108858 -1.7528240 1.00000 0.00000             
S     core 18.701859 6.1349133 -8.550778 -1.7528240 1.00000 0.00000             
Pb    core 18.820360 8.7576770 -8.485342 1.75282400 1.00000 0.00000             
S     core 21.113859 3.1211523 -2.033338 -1.7528240 1.00000 0.00000             
S     core 18.528334 -0.001324 -2.376686 -1.7528240 1.00000 0.00000             
S     core 18.358660 2.7187492 -5.304946 -1.7528240 1.00000 0.00000             
Pb    core 18.316691 3.2263112 -2.447841 1.75282400 1.00000 0.00000             
Pb    core 21.300250 0.5061077 -1.911439 1.75282400 1.00000 0.00000             
Pb    core 18.314814 0.0493798 -5.249880 1.75282400 1.00000 0.00000             
S     core 17.615454 2.0812764 18.918527 -1.7528240 1.00000 0.00000             
Pb    core 16.689378 2.5065752 21.522310 1.75282400 1.00000 0.00000             
Pb    core 20.195551 3.0091817 18.486147 1.75282400 1.00000 0.00000             
Pb    core 17.246809 -0.482556 17.960149 1.75282400 1.00000 0.00000             
S     core 21.070896 -2.828011 3.8951362 -1.7528240 1.00000 0.00000             
S     core 17.838948 -6.065536 3.3225423 -1.7528240 1.00000 0.00000             
S     core 18.016801 -3.074671 0.3314680 -1.7528240 1.00000 0.00000             
Pb    core 18.192629 -2.993867 3.3169260 1.75282400 1.00000 0.00000             
Pb    core 22.983175 -1.776358 2.1535583 1.75282400 1.00000 0.00000             
Pb    core 17.772610 -5.810468 0.5349496 1.75282400 1.00000 0.00000             
S     core 16.890486 -5.995749 15.410400 -1.7528240 1.00000 0.00000             
S     core 17.678569 -3.562675 12.263675 -1.7528240 1.00000 0.00000             
Pb    core 17.600837 -3.311294 15.287299 1.75282400 1.00000 0.00000             
Pb    core 22.737187 -1.627192 11.409831 1.75282400 1.00000 0.00000             
Pb    core 17.348177 -6.456260 12.790684 1.75282400 1.00000 0.00000             
S     core 17.821308 -8.763059 6.2881538 -1.7528240 1.00000 0.00000             
Pb    core 17.985433 -8.656325 9.0617320 1.75282400 1.00000 0.00000             
S     core 18.372934 11.946598 -2.289743 -1.7528240 1.00000 0.00000             
S     core 18.510560 14.846589 -5.079693 -1.7528240 1.00000 0.00000             
Pb    core 18.422609 15.277827 -2.362997 1.75282400 1.00000 0.00000             
Pb    core 23.322986 10.553867 -0.719032 1.75282400 1.00000 0.00000             
Pb    core 18.624087 12.216094 -5.096292 1.75282400 1.00000 0.00000             
S     core 19.429849 13.097055 17.522744 -1.7528240 1.00000 0.00000             
Pb    core 17.330234 11.554369 18.315932 1.75282400 1.00000 0.00000             
S     core 18.371022 17.810408 3.7620014 -1.7528240 1.00000 0.00000             
Pb    core 21.030235 17.936516 4.4318964 1.75282400 1.00000 0.00000             
Pb    core 18.084860 17.661427 1.0307057 1.75282400 1.00000 0.00000             
S     core 17.421777 17.404908 15.543787 -1.7528240 1.00000 0.00000             
Pb    core 17.431948 17.434632 12.880242 1.75282400 1.00000 0.00000             
S     core 23.797741 -0.058746 4.0910469 -1.7528240 1.00000 0.00000             
S     core 24.080804 3.1560625 1.1164726 -1.7528240 1.00000 0.00000             
Pb    core 23.986967 2.8942301 3.8478896 1.75282400 1.00000 0.00000             
S     core 23.511435 3.0461692 12.583954 -1.7528240 1.00000 0.00000             
S     core 23.971789 11.706366 4.2103742 -1.7528240 1.00000 0.00000             
S     core 9.6810895 3.2284286 -8.801437 -1.7528240 1.00000 0.00000             
S     core 6.6828287 0.3126015 -9.027926 -1.7528240 1.00000 0.00000             
S     core 9.5660166 0.5496103 -11.92166 -1.7528240 1.00000 0.00000             
S     core 6.8326004 3.5217773 -11.87664 -1.7528240 1.00000 0.00000             
Pb    core 6.6886286 3.3566616 -8.909866 1.75282400 1.00000 0.00000             
Pb    core 9.7126196 0.1968615 -8.949054 1.75282400 1.00000 0.00000             
Pb    core 9.6361088 3.5105015 -11.76072 1.75282400 1.00000 0.00000             
Pb    core 6.7968812 0.7112054 -11.95212 1.75282400 1.00000 0.00000             
S     core 7.8501325 0.0231962 23.901844 -1.7528240 1.00000 0.00000             
S     core 5.0987630 2.9012549 23.753432 -1.7528240 1.00000 0.00000             
Pb    core 8.0692430 2.7964280 23.980668 1.75282400 1.00000 0.00000             
Pb    core 5.1228196 0.0492646 23.836255 1.75282400 1.00000 0.00000             
S     core 9.3093486 -2.929678 -2.987368 -1.7528240 1.00000 0.00000             
S     core 6.2271712 -5.842296 -3.240193 -1.7528240 1.00000 0.00000             
S     core 9.7460088 -6.295365 -6.399697 -1.7528240 1.00000 0.00000             
S     core 6.5158681 -2.910627 -6.034512 -1.7528240 1.00000 0.00000             
Pb    core 6.3455383 -2.793579 -3.110902 1.75282400 1.00000 0.00000             
Pb    core 9.3131798 -5.866382 -2.843774 1.75282400 1.00000 0.00000             
Pb    core 9.5723712 -2.627866 -5.923491 1.75282400 1.00000 0.00000             
Pb    core 6.5152081 -5.828104 -6.199189 1.75282400 1.00000 0.00000             
S     core 8.1290180 -3.115168 20.662612 -1.7528240 1.00000 0.00000             
S     core 4.9998164 -6.228495 20.489608 -1.7528240 1.00000 0.00000             
S     core 8.1576977 -6.097727 17.846019 -1.7528240 1.00000 0.00000             
S     core 5.1906879 -3.112136 17.670201 -1.7528240 1.00000 0.00000             
Pb    core 5.3479921 -3.254842 20.655777 1.75282400 1.00000 0.00000             
Pb    core 8.1458416 -3.065515 17.824149 1.75282400 1.00000 0.00000             
Pb    core 5.2010347 -5.981808 17.554245 1.75282400 1.00000 0.00000             
S     core 8.9883104 -8.879683 2.9649965 -1.7528240 1.00000 0.00000             
S     core 5.9090167 -11.76591 2.8409125 -1.7528240 1.00000 0.00000             
S     core 8.9364932 -11.92135 0.1815890 -1.7528240 1.00000 0.00000             
S     core 6.1591155 -8.793141 -0.141760 -1.7528240 1.00000 0.00000             
Pb    core 6.0164171 -8.801011 2.8756222 1.75282400 1.00000 0.00000             
Pb    core 8.7640510 -11.82705 3.0746397 1.75282400 1.00000 0.00000             
Pb    core 9.2091931 -8.910665 -0.094528 1.75282400 1.00000 0.00000             
Pb    core 6.1979884 -11.76340 0.0693955 1.75282400 1.00000 0.00000             
S     core 8.4674349 -9.039984 14.728560 -1.7528240 1.00000 0.00000             
S     core 8.6984663 -11.83552 11.837414 -1.7528240 1.00000 0.00000             
S     core 5.6227981 -8.621997 11.811742 -1.7528240 1.00000 0.00000             
Pb    core 5.6757650 -9.089923 14.653501 1.75282400 1.00000 0.00000             
Pb    core 8.3970324 -9.032284 11.739594 1.75282400 1.00000 0.00000             
S     core 9.6342387 14.996117 -8.348265 -1.7528240 1.00000 0.00000             
S     core 6.7341476 12.304083 -8.791982 -1.7528240 1.00000 0.00000             
S     core 9.6304994 12.107622 -11.66354 -1.7528240 1.00000 0.00000             
Pb    core 6.9088457 15.428808 -8.603322 1.75282400 1.00000 0.00000             
Pb    core 9.7332868 12.224003 -8.878169 1.75282400 1.00000 0.00000             
Pb    core 6.9496328 12.161142 -11.82862 1.75282400 1.00000 0.00000             
S     core 7.7256613 11.584447 24.042701 -1.7528240 1.00000 0.00000             
Pb    core 5.0501846 11.445739 23.986794 1.75282400 1.00000 0.00000             
S     core 9.4164637 21.115704 -2.257922 -1.7528240 1.00000 0.00000             
S     core 6.4304661 18.118174 -2.589153 -1.7528240 1.00000 0.00000             
S     core 9.9967685 18.030795 -5.401868 -1.7528240 1.00000 0.00000             
S     core 6.5201294 21.415805 -5.545648 -1.7528240 1.00000 0.00000             
Pb    core 6.6294056 21.104562 -2.685713 1.75282400 1.00000 0.00000             
Pb    core 9.5184591 18.284588 -2.565731 1.75282400 1.00000 0.00000             
Pb    core 8.0029758 19.404986 -6.649651 1.75282400 1.00000 0.00000             
S     core 4.5491921 17.581480 20.810563 -1.7528240 1.00000 0.00000             
S     core 8.7050167 17.955361 18.217861 -1.7528240 1.00000 0.00000             
S     core 5.3635234 20.505560 18.410902 -1.7528240 1.00000 0.00000             
Pb    core 8.0307868 20.725277 18.200858 1.75282400 1.00000 0.00000             
Pb    core 5.8649395 17.650854 18.316792 1.75282400 1.00000 0.00000             
S     core 6.3253439 23.998593 3.6970116 -1.7528240 1.00000 0.00000             
S     core 10.316770 23.599517 1.0261777 -1.7528240 1.00000 0.00000             
Pb    core 9.1703805 24.239016 3.5014054 1.75282400 1.00000 0.00000             
S     core 8.3051944 23.838450 12.671739 -1.7528240 1.00000 0.00000             
Pb    core 5.5758687 23.413651 12.752964 1.75282400 1.00000 0.00000             
S     core 3.8007233 9.3155321 -8.961447 -1.7528240 1.00000 0.00000             
S     core 0.9460530 6.3035890 -9.196478 -1.7528240 1.00000 0.00000             
S     core 4.0218843 6.3952200 -11.98307 -1.7528240 1.00000 0.00000             
S     core 1.0818816 9.0078344 -12.17876 -1.7528240 1.00000 0.00000             
Pb    core 0.8266620 9.2378272 -9.393161 1.75282400 1.00000 0.00000             
Pb    core 3.8177325 6.4129448 -9.057193 1.75282400 1.00000 0.00000             
Pb    core 3.8306239 9.5289303 -12.09054 1.75282400 1.00000 0.00000             
Pb    core 1.1317145 6.3415939 -12.14319 1.75282400 1.00000 0.00000             
S     core 2.2378931 5.7573865 23.664580 -1.7528240 1.00000 0.00000             
S     core -0.738320 8.5464265 23.466562 -1.7528240 1.00000 0.00000             
Pb    core 2.1800084 8.7361901 23.805029 1.75282400 1.00000 0.00000             
Pb    core -0.523608 5.8340998 23.532940 1.75282400 1.00000 0.00000             
S     core 3.4573887 3.1986430 -3.138373 -1.7528240 1.00000 0.00000             
S     core 0.4787220 0.2610720 -3.314187 -1.7528240 1.00000 0.00000             
S     core 3.5840263 0.3063131 -6.187199 -1.7528240 1.00000 0.00000             
S     core 0.5687134 3.2015581 -6.308801 -1.7528240 1.00000 0.00000             