# 
# Keywords:
# 
conp opti  
# 
# Options:
# 
cartesian 
S     core -2.486496 -2.847336 -14.84574 -1.7528240 1.00000 0.00000             
S     core -2.467812 -9.383170 -8.920437 -1.7528240 1.00000 0.00000             
Pb    core -5.164821 -9.072923 -8.517831 1.75282400 1.00000 0.00000             
Pb    core -0.985329 -11.13169 -10.57304 1.75282400 1.00000 0.00000             
S     core -2.176089 -15.02514 -2.683768 -1.7528240 1.00000 0.00000             
Pb    core -2.028357 24.803493 -8.267509 1.75282400 1.00000 0.00000             
S     core -8.974234 -3.227153 -8.897627 -1.7528240 1.00000 0.00000             
Pb    core -10.47167 -1.895188 -10.84286 1.75282400 1.00000 0.00000             
Pb    core -10.54183 -5.282314 -7.596839 1.75282400 1.00000 0.00000             
Pb    core -7.083576 -1.937823 -14.16732 1.75282400 1.00000 0.00000             
Pb    core -9.090973 -2.463229 23.608887 1.75282400 1.00000 0.00000             
S     core -8.786096 -9.306142 -2.907197 -1.7528240 1.00000 0.00000             
Pb    core -13.49647 -8.193609 -1.286717 1.75282400 1.00000 0.00000             
Pb    core -8.241615 -11.99092 -2.382365 1.75282400 1.00000 0.00000             
Pb    core -10.47120 -8.070252 -4.843675 1.75282400 1.00000 0.00000             
Pb    core -9.265276 -8.846549 18.117505 1.75282400 1.00000 0.00000             
Pb    core -7.662902 16.907187 -10.51101 1.75282400 1.00000 0.00000             
Pb    core -8.926785 23.646562 -2.264086 1.75282400 1.00000 0.00000             
S     core -14.38365 -3.422038 -2.840485 -1.7528240 1.00000 0.00000             
Pb    core 17.836929 -8.128921 -9.325829 1.75282400 1.00000 0.00000             
Pb    core 22.971494 -1.444454 -10.66852 1.75282400 1.00000 0.00000             
Pb    core 26.179284 -7.170615 -1.215347 1.75282400 1.00000 0.00000             
S     core 3.4534834 -3.022156 -14.69758 -1.7528240 1.00000 0.00000             
S     core 0.9843879 -6.083485 -14.94995 -1.7528240 1.00000 0.00000             
Pb    core 0.2671322 -3.423297 -14.78817 1.75282400 1.00000 0.00000             
Pb    core 3.6387104 -5.864347 -14.81851 1.75282400 1.00000 0.00000             
S     core 3.4826333 -9.001367 -8.701147 -1.7528240 1.00000 0.00000             
S     core 0.8250555 -12.02122 -8.739769 -1.7528240 1.00000 0.00000             
S     core 0.8287594 -9.359000 -11.56754 -1.7528240 1.00000 0.00000             
Pb    core 0.6059892 -8.994499 -8.665299 1.75282400 1.00000 0.00000             
Pb    core 3.6132715 -12.01595 -8.479631 1.75282400 1.00000 0.00000             
Pb    core 3.5772754 -8.969415 -11.60711 1.75282400 1.00000 0.00000             
S     core -1.779203 -7.604096 23.498161 -1.7528240 1.00000 0.00000             
Pb    core 0.4558566 -5.933492 23.616293 1.75282400 1.00000 0.00000             
S     core 3.3338350 -14.85356 -2.512798 -1.7528240 1.00000 0.00000             
S     core -2.356672 -12.29456 -5.514924 -1.7528240 1.00000 0.00000             
Pb    core 0.5904609 -14.86779 -2.649054 1.75282400 1.00000 0.00000             
S     core 0.7309625 -14.62732 17.938753 -1.7528240 1.00000 0.00000             
Pb    core 3.4227196 -14.79666 17.818654 1.75282400 1.00000 0.00000             
S     core 0.0720220 17.439928 -14.87326 -1.7528240 1.00000 0.00000             
Pb    core 2.8869827 17.376821 -14.93341 1.75282400 1.00000 0.00000             
S     core 0.3088870 23.518986 -8.798267 -1.7528240 1.00000 0.00000             
Pb    core 3.0143361 23.562599 -8.639521 1.75282400 1.00000 0.00000             
S     core -2.598597 2.7883583 -14.72215 -1.7528240 1.00000 0.00000             
S     core -5.617150 0.1638247 -14.83676 -1.7528240 1.00000 0.00000             
Pb    core -5.417439 2.8716059 -14.84366 1.75282400 1.00000 0.00000             
Pb    core -2.731881 -0.152598 -14.78502 1.75282400 1.00000 0.00000             
S     core -2.800847 -3.252221 -8.955322 -1.7528240 1.00000 0.00000             
S     core -5.563408 -6.441809 -9.221174 -1.7528240 1.00000 0.00000             
S     core -2.516229 -6.094222 -11.74402 -1.7528240 1.00000 0.00000             
S     core -5.848341 -3.230137 -12.05759 -1.7528240 1.00000 0.00000             
Pb    core -5.867126 -3.414357 -8.970659 1.75282400 1.00000 0.00000             
Pb    core -2.459228 -6.258727 -8.923457 1.75282400 1.00000 0.00000             
Pb    core -2.537672 -3.218848 -12.04444 1.75282400 1.00000 0.00000             
Pb    core -5.143198 -5.872325 -11.91286 1.75282400 1.00000 0.00000             
S     core -2.619169 -3.698719 26.265607 -1.7528240 1.00000 0.00000             
S     core -5.168893 -5.559801 21.975001 -1.7528240 1.00000 0.00000             
S     core -6.410721 -2.649965 23.782613 -1.7528240 1.00000 0.00000             
Pb    core -3.760105 -3.433527 23.614376 1.75282400 1.00000 0.00000             
S     core -2.575639 -9.107350 -2.828788 -1.7528240 1.00000 0.00000             
S     core -5.532078 -12.30989 -2.847630 -1.7528240 1.00000 0.00000             
S     core -5.437726 -9.102571 -5.881148 -1.7528240 1.00000 0.00000             
S     core -8.628721 -6.094632 -5.681116 -1.7528240 1.00000 0.00000             
Pb    core -5.611939 -9.240718 -3.041753 1.75282400 1.00000 0.00000             
Pb    core -2.416681 -11.96620 -2.662528 1.75282400 1.00000 0.00000             
Pb    core -2.549411 -9.381774 -5.812044 1.75282400 1.00000 0.00000             
Pb    core -4.093138 -14.13137 -4.421753 1.75282400 1.00000 0.00000             
S     core -4.580177 -8.157426 19.332580 -1.7528240 1.00000 0.00000             
S     core -2.054592 -10.94029 19.755013 -1.7528240 1.00000 0.00000             
S     core -7.684382 -10.00025 20.064707 -1.7528240 1.00000 0.00000             
Pb    core -6.725860 -7.579731 21.006180 1.75282400 1.00000 0.00000             
Pb    core -2.395245 -8.850282 17.824358 1.75282400 1.00000 0.00000             
Pb    core -5.064746 -10.97323 19.286024 1.75282400 1.00000 0.00000             
S     core -2.387946 -14.92688 3.2240390 -1.7528240 1.00000 0.00000             
S     core -5.300234 -15.17009 0.6239822 -1.7528240 1.00000 0.00000             
Pb    core -5.223193 -15.13850 3.3291828 1.75282400 1.00000 0.00000             
Pb    core -2.583139 -15.02767 0.1911818 1.75282400 1.00000 0.00000             
S     core -2.770863 -14.58462 14.680626 -1.7528240 1.00000 0.00000             
S     core -5.393491 -14.76811 11.719012 -1.7528240 1.00000 0.00000             
Pb    core -2.578942 -14.84084 11.954351 1.75282400 1.00000 0.00000             
S     core -2.653796 14.574487 -14.73959 -1.7528240 1.00000 0.00000             
S     core -5.644436 11.078137 -15.03858 -1.7528240 1.00000 0.00000             
Pb    core -2.997063 11.644783 -14.90175 1.75282400 1.00000 0.00000             
S     core -3.488903 22.778815 -9.874209 -1.7528240 1.00000 0.00000             
S     core -6.212235 18.699638 -8.974693 -1.7528240 1.00000 0.00000             
S     core -2.729994 18.762342 -12.09368 -1.7528240 1.00000 0.00000             
Pb    core -5.421740 21.311538 -8.675660 1.75282400 1.00000 0.00000             
Pb    core -3.476734 17.434582 -9.539685 1.75282400 1.00000 0.00000             
Pb    core -2.134304 21.489785 -11.90437 1.75282400 1.00000 0.00000             
Pb    core -2.742490 17.295766 -14.50016 1.75282400 1.00000 0.00000             
S     core -3.075721 17.451607 24.111126 -1.7528240 1.00000 0.00000             
Pb    core -5.824383 17.526921 24.201326 1.75282400 1.00000 0.00000             
S     core -3.096928 26.447877 -2.860273 -1.7528240 1.00000 0.00000             
S     core -6.240464 23.731110 -3.006792 -1.7528240 1.00000 0.00000             
S     core -3.165329 23.682499 -5.892839 -1.7528240 1.00000 0.00000             
Pb    core -3.102336 23.526357 -2.776469 1.75282400 1.00000 0.00000             
Pb    core -4.915949 25.546846 -4.602632 1.75282400 1.00000 0.00000             
S     core -3.227475 23.801625 17.590062 -1.7528240 1.00000 0.00000             
Pb    core -1.736675 22.788197 22.668350 1.75282400 1.00000 0.00000             
Pb    core -4.697893 25.825442 16.586685 1.75282400 1.00000 0.00000             
S     core -8.639467 2.5815730 -8.922403 -1.7528240 1.00000 0.00000             
S     core -11.36251 0.0226820 -9.188828 -1.7528240 1.00000 0.00000             
S     core -8.612260 -0.385787 -12.25311 -1.7528240 1.00000 0.00000             
Pb    core -11.61302 2.7426898 -8.763038 1.75282400 1.00000 0.00000             
Pb    core -8.560548 -0.270878 -8.631724 1.75282400 1.00000 0.00000             
Pb    core -8.543902 2.5401962 -11.80293 1.75282400 1.00000 0.00000             
S     core -8.984256 0.2828399 23.800848 -1.7528240 1.00000 0.00000             
Pb    core -8.682203 2.9439604 23.691697 1.75282400 1.00000 0.00000             
S     core -8.571236 -3.268728 -2.792263 -1.7528240 1.00000 0.00000             
S     core -11.71806 -6.475695 -2.728903 -1.7528240 1.00000 0.00000             
S     core -12.39636 -7.099085 -6.578988 -1.7528240 1.00000 0.00000             
S     core -11.46756 -3.348355 -5.746182 -1.7528240 1.00000 0.00000             
Pb    core -11.49010 -3.272119 -2.809055 1.75282400 1.00000 0.00000             
Pb    core -8.531088 -6.223089 -2.748279 1.75282400 1.00000 0.00000             
Pb    core -8.591166 -3.170667 -5.712694 1.75282400 1.00000 0.00000             
Pb    core -13.52376 -5.123886 -4.898497 1.75282400 1.00000 0.00000             
S     core -9.159884 -3.217112 20.874298 -1.7528240 1.00000 0.00000             
S     core -11.89978 -7.555630 17.850523 -1.7528240 1.00000 0.00000             
S     core -11.62641 -3.410868 17.712009 -1.7528240 1.00000 0.00000             
Pb    core -10.73613 -5.358626 19.473533 1.75282400 1.00000 0.00000             
Pb    core -8.709540 -3.030355 17.951408 1.75282400 1.00000 0.00000             
Pb    core -13.43831 -5.321931 16.533081 1.75282400 1.00000 0.00000             
S     core -8.585424 -9.148210 3.1267287 -1.7528240 1.00000 0.00000             
S     core -8.450258 -12.04859 0.2979711 -1.7528240 1.00000 0.00000             
S     core -11.71330 -9.047254 0.5949861 -1.7528240 1.00000 0.00000             
Pb    core -11.45206 -9.078413 3.4051567 1.75282400 1.00000 0.00000             
Pb    core -8.342095 -12.05981 3.0604425 1.75282400 1.00000 0.00000             
Pb    core -8.793617 -9.191336 0.1532489 1.75282400 1.00000 0.00000             
S     core -8.759099 -8.773291 15.339916 -1.7528240 1.00000 0.00000             
S     core -7.231516 -11.73710 13.496596 -1.7528240 1.00000 0.00000             
S     core -11.32718 -9.186248 11.995890 -1.7528240 1.00000 0.00000             
Pb    core -11.55871 -8.675963 14.875091 1.75282400 1.00000 0.00000             
Pb    core -8.519866 -9.302766 12.405483 1.75282400 1.00000 0.00000             
S     core -8.821177 14.756548 -9.177913 -1.7528240 1.00000 0.00000             
S     core -11.69358 11.075635 -8.893866 -1.7528240 1.00000 0.00000             
S     core -8.836094 10.944135 -11.79704 -1.7528240 1.00000 0.00000             
Pb    core -11.46033 13.703707 -9.245762 1.75282400 1.00000 0.00000             
Pb    core -8.838347 11.233818 -9.057106 1.75282400 1.00000 0.00000             
S     core -9.161656 11.418457 23.628943 -1.7528240 1.00000 0.00000             
S     core -9.070267 20.961263 -3.102447 -1.7528240 1.00000 0.00000             
S     core -12.16364 17.599751 -2.947768 -1.7528240 1.00000 0.00000             
S     core -9.418500 17.744082 -5.921760 -1.7528240 1.00000 0.00000             
Pb    core -14.08283 19.146966 -1.538639 1.75282400 1.00000 0.00000             
Pb    core -9.200665 17.666949 -2.911721 1.75282400 1.00000 0.00000             
Pb    core -8.758311 20.343085 -5.711635 1.75282400 1.00000 0.00000             
Pb    core -12.13103 16.921927 -5.580576 1.75282400 1.00000 0.00000             
S     core -9.196609 17.773741 18.020487 -1.7528240 1.00000 0.00000             
Pb    core -8.991383 17.389189 20.710127 1.75282400 1.00000 0.00000             
Pb    core -10.89130 19.481092 16.555704 1.75282400 1.00000 0.00000             
Pb    core -14.26423 16.122133 16.369557 1.75282400 1.00000 0.00000             
S     core -9.123286 23.437668 0.3621069 -1.7528240 1.00000 0.00000             
Pb    core -9.033176 23.422715 3.1325348 1.75282400 1.00000 0.00000             
S     core -8.930998 23.833903 11.440992 -1.7528240 1.00000 0.00000             
Pb    core -8.098059 25.652912 13.249288 1.75282400 1.00000 0.00000             
S     core -14.58778 2.5590003 -2.862170 -1.7528240 1.00000 0.00000             
S     core -14.68131 -0.028913 -5.853860 -1.7528240 1.00000 0.00000             
Pb    core -14.53534 -0.539842 -3.131574 1.75282400 1.00000 0.00000             
Pb    core -14.74063 2.6521181 -5.681364 1.75282400 1.00000 0.00000             
S     core -14.95803 0.1614908 17.664883 -1.7528240 1.00000 0.00000             
Pb    core -14.90174 2.8185634 17.469790 1.75282400 1.00000 0.00000             
S     core -14.47483 -3.258263 2.9758273 -1.7528240 1.00000 0.00000             
S     core -14.50024 -6.337695 0.4130801 -1.7528240 1.00000 0.00000             
Pb    core -14.53336 -6.060078 3.1678342 1.75282400 1.00000 0.00000             
Pb    core -14.49303 -3.496540 -0.007725 1.75282400 1.00000 0.00000             
S     core -14.46405 -3.277450 14.804650 -1.7528240 1.00000 0.00000             
S     core -14.55738 -6.237177 11.375047 -1.7528240 1.00000 0.00000             
Pb    core -14.53302 -3.529763 11.993076 1.75282400 1.00000 0.00000             
S     core -14.84533 14.261080 -2.753260 -1.7528240 1.00000 0.00000             
S     core -15.00575 10.881974 -5.873476 -1.7528240 1.00000 0.00000             
Pb    core -14.93506 11.483432 -3.181705 1.75282400 1.00000 0.00000             
S     core -15.15247 11.068555 17.656665 -1.7528240 1.00000 0.00000             
S     core -14.95879 17.420334 0.3433603 -1.7528240 1.00000 0.00000             
Pb    core -15.02306 17.155996 3.0940903 1.75282400 1.00000 0.00000             
S     core -15.21779 17.296808 11.354807 -1.7528240 1.00000 0.00000             
S     core 15.195554 -2.939857 -14.31669 -1.7528240 1.00000 0.00000             
S     core 11.984909 -5.837974 -14.54002 -1.7528240 1.00000 0.00000             
Pb    core 12.310125 -3.100951 -14.60360 1.75282400 1.00000 0.00000             
S     core 15.148973 -8.700194 -8.997394 -1.7528240 1.00000 0.00000             
S     core 12.003136 -11.97710 -8.503662 -1.7528240 1.00000 0.00000             
S     core 11.973675 -8.807578 -11.59468 -1.7528240 1.00000 0.00000             
Pb    core 12.232630 -9.059550 -8.709157 1.75282400 1.00000 0.00000             
Pb    core 13.861388 -13.71620 -7.601481 1.75282400 1.00000 0.00000             
Pb    core 14.639632 -8.980172 -11.80190 1.75282400 1.00000 0.00000             
S     core 11.999054 -8.675949 23.690817 -1.7528240 1.00000 0.00000             
Pb    core 13.888980 -10.43745 22.759281 1.75282400 1.00000 0.00000             
S     core 15.225379 -14.62938 -2.540152 -1.7528240 1.00000 0.00000             
S     core 12.239465 -14.76251 -5.696420 -1.7528240 1.00000 0.00000             
Pb    core 12.422319 -14.72342 -2.799896 1.75282400 1.00000 0.00000             
S     core 11.666699 -14.90429 17.968492 -1.7528240 1.00000 0.00000             
S     core 11.134861 17.796011 -14.87548 -1.7528240 1.00000 0.00000             
S     core 11.352656 23.853060 -8.944102 -1.7528240 1.00000 0.00000             
Pb    core 14.030126 23.974555 -8.823477 1.75282400 1.00000 0.00000             
S     core 18.208775 0.3462703 -14.51806 -1.7528240 1.00000 0.00000             
Pb    core 17.823996 3.1073381 -14.68926 1.75282400 1.00000 0.00000             
S     core 21.878330 -3.307470 -12.48945 -1.7528240 1.00000 0.00000             
S     core 18.153706 -5.438653 -8.868059 -1.7528240 1.00000 0.00000             
S     core 18.037982 -2.816152 -11.80032 -1.7528240 1.00000 0.00000             
Pb    core 18.052755 -2.589487 -8.617532 1.75282400 1.00000 0.00000             
Pb    core 20.224397 -4.390821 -10.56786 1.75282400 1.00000 0.00000             
Pb    core 20.134306 -1.497591 -13.60093 1.75282400 1.00000 0.00000             
Pb    core 16.936159 -4.941568 -13.53088 1.75282400 1.00000 0.00000             
S     core 17.844132 -2.328034 24.015873 -1.7528240 1.00000 0.00000             
Pb    core 17.103254 -4.433495 25.555597 1.75282400 1.00000 0.00000             
S     core 21.131053 -9.053127 -2.913222 -1.7528240 1.00000 0.00000             
S     core 18.352992 -11.82260 -2.753289 -1.7528240 1.00000 0.00000             
S     core 18.445805 -8.615106 -6.534914 -1.7528240 1.00000 0.00000             
Pb    core 18.227698 -8.824649 -2.701567 1.75282400 1.00000 0.00000             
Pb    core 21.046216 -11.69149 -2.065620 1.75282400 1.00000 0.00000             
Pb    core 21.028213 -8.289878 -5.559874 1.75282400 1.00000 0.00000             
Pb    core 17.104622 -13.77957 -4.246840 1.75282400 1.00000 0.00000             
S     core 18.371035 -8.866478 18.257096 -1.7528240 1.00000 0.00000             
Pb    core 17.957761 -7.639001 21.216206 1.75282400 1.00000 0.00000             
Pb    core 21.210402 -8.146735 18.059935 1.75282400 1.00000 0.00000             
Pb    core 17.775186 -11.57988 17.756470 1.75282400 1.00000 0.00000             
S     core 18.214359 -14.65695 0.7059232 -1.7528240 1.00000 0.00000             
Pb    core 18.003471 -14.72262 3.3951666 1.75282400 1.00000 0.00000             
S     core 18.255831 -14.52689 11.662774 -1.7528240 1.00000 0.00000             
S     core 17.797648 11.339311 -14.89498 -1.7528240 1.00000 0.00000             
S     core 17.951514 17.982338 -9.321167 -1.7528240 1.00000 0.00000             
Pb    core 20.636972 17.839951 -8.479543 1.75282400 1.00000 0.00000             
Pb    core 17.412984 17.558050 -11.97871 1.75282400 1.00000 0.00000             
Pb    core 16.881088 18.417274 23.882484 1.75282400 1.00000 0.00000             
S     core 17.797763 24.037819 -2.944500 -1.7528240 1.00000 0.00000             
Pb    core 20.418679 24.294382 -2.108283 1.75282400 1.00000 0.00000             
Pb    core 17.362715 23.808067 -5.604036 1.75282400 1.00000 0.00000             
Pb    core 16.984250 24.630508 17.887695 1.75282400 1.00000 0.00000             
S     core 23.770978 0.6141721 -8.910483 -1.7528240 1.00000 0.00000             
Pb    core 23.966437 3.3384184 -8.473428 1.75282400 1.00000 0.00000             
S     core 27.072072 -2.407608 -2.310651 -1.7528240 1.00000 0.00000             
S     core 24.146540 -5.668781 -2.265515 -1.7528240 1.00000 0.00000             
S     core 20.994587 -2.429652 -8.727014 -1.7528240 1.00000 0.00000             
Pb    core 24.345140 -2.810144 -2.527456 1.75282400 1.00000 0.00000             
S     core 23.994686 -2.777601 18.367493 -1.7528240 1.00000 0.00000             
Pb    core 25.766591 -1.072278 19.795225 1.75282400 1.00000 0.00000             
Pb    core 25.542642 -4.649514 16.864823 1.75282400 1.00000 0.00000             
S     core 24.406967 -8.396268 0.6720575 -1.7528240 1.00000 0.00000             
Pb    core 24.153101 -8.240556 3.4034497 1.75282400 1.00000 0.00000             
S     core 23.950662 -8.447678 12.241225 -1.7528240 1.00000 0.00000             
Pb    core 23.964879 -7.987908 15.034756 1.75282400 1.00000 0.00000             
S     core 23.854139 11.612783 -8.859114 -1.7528240 1.00000 0.00000             
S     core 23.862188 18.261589 -2.872337 -1.7528240 1.00000 0.00000             
Pb    core 25.758582 16.892886 -4.475261 1.75282400 1.00000 0.00000             
Pb    core 23.501386 18.041577 18.011712 1.75282400 1.00000 0.00000             
S     core 9.3271613 -2.921871 -14.58707 -1.7528240 1.00000 0.00000             
S     core 6.4516023 -5.773896 -14.77309 -1.7528240 1.00000 0.00000             
Pb    core 6.3343556 -2.976727 -14.59910 1.75282400 1.00000 0.00000             
Pb    core 9.2266556 -5.772097 -14.73015 1.75282400 1.00000 0.00000             
S     core 9.3122469 -8.922069 -8.679409 -1.7528240 1.00000 0.00000             
S     core 6.4129416 -11.82470 -8.611792 -1.7528240 1.00000 0.00000             
S     core 6.3947510 -8.866718 -11.62804 -1.7528240 1.00000 0.00000             
Pb    core 6.3457113 -8.962310 -8.694954 1.75282400 1.00000 0.00000             
Pb    core 9.1670987 -11.84323 -8.481289 1.75282400 1.00000 0.00000             
Pb    core 9.1611964 -8.836455 -11.57734 1.75282400 1.00000 0.00000             
S     core 6.3821640 -8.724574 23.829994 -1.7528240 1.00000 0.00000             
Pb    core 9.1602336 -8.664125 23.811466 1.75282400 1.00000 0.00000             
Pb    core 3.5756841 -8.985570 23.665350 1.75282400 1.00000 0.00000             
S     core 9.5545046 -14.76192 -2.633453 -1.7528240 1.00000 0.00000             
S     core 6.8242681 -14.92890 -5.546271 -1.7528240 1.00000 0.00000             
Pb    core 6.1574383 -14.87748 -2.885143 1.75282400 1.00000 0.00000             
Pb    core 9.4673350 -14.88847 -5.426435 1.75282400 1.00000 0.00000             
S     core 6.2218822 -14.79833 17.751190 -1.7528240 1.00000 0.00000             
Pb    core 8.9996388 -14.81257 17.790279 1.75282400 1.00000 0.00000             
S     core 5.6918148 17.519639 -14.83241 -1.7528240 1.00000 0.00000             
Pb    core 8.5081140 17.471388 -14.97657 1.75282400 1.00000 0.00000             
S     core 5.8074978 23.846505 -9.322660 -1.7528240 1.00000 0.00000             
Pb    core 8.7094910 23.742018 -8.552834 1.75282400 1.00000 0.00000             
Pb    core 6.1382352 23.891536 -11.97267 1.75282400 1.00000 0.00000             
Pb    core 2.9095038 20.708025 23.746015 1.75282400 1.00000 0.00000             
S     core 3.2464985 2.8027489 -14.79826 -1.7528240 1.00000 0.00000             
S     core 0.3072508 -0.192931 -15.08225 -1.7528240 1.00000 0.00000             
S     core 3.4756744 0.0631514 -17.87239 -1.7528240 1.00000 0.00000             
S     core 0.5349602 2.8437800 -17.89841 -1.7528240 1.00000 0.00000             
Pb    core 0.2631812 2.7547470 -14.89269 1.75282400 1.00000 0.00000             
Pb    core 3.2908249 -0.217072 -14.84928 1.75282400 1.00000 0.00000             
Pb    core 3.3871401 2.8899313 -17.75455 1.75282400 1.00000 0.00000             
Pb    core 0.7356098 0.0893005 -17.83753 1.75282400 1.00000 0.00000             
S     core 3.1355153 0.2096635 29.874108 -1.7528240 1.00000 0.00000             
S     core 0.2340376 2.9468491 29.900651 -1.7528240 1.00000 0.00000             
Pb    core 3.0448086 3.0951158 29.783903 1.75282400 1.00000 0.00000             
Pb    core 0.3816599 0.2456743 29.854165 1.75282400 1.00000 0.00000             
S     core 3.2898033 -3.070158 -8.815471 -1.7528240 1.00000 0.00000             
S     core 0.4208620 -6.131377 -8.734209 -1.7528240 1.00000 0.00000             
S     core 3.4275457 -6.112171 -11.83057 -1.7528240 1.00000 0.00000             
S     core 0.3581407 -3.097174 -11.85287 -1.7528240 1.00000 0.00000             
Pb    core 0.2700856 -3.226259 -8.941074 1.75282400 1.00000 0.00000             
Pb    core 3.3240196 -6.027257 -8.827439 1.75282400 1.00000 0.00000             
Pb    core 3.2348228 -3.158489 -11.79450 1.75282400 1.00000 0.00000             
Pb    core 0.2414460 -6.581165 -12.28043 1.75282400 1.00000 0.00000             
S     core 3.1064515 -2.940935 26.698518 -1.7528240 1.00000 0.00000             
S     core 0.4818651 -6.066161 26.571251 -1.7528240 1.00000 0.00000             
S     core 3.2743103 -6.056910 23.873813 -1.7528240 1.00000 0.00000             
S     core 0.3309558 -3.053630 23.722362 -1.7528240 1.00000 0.00000             
Pb    core 0.1697620 -3.206445 26.546719 1.75282400 1.00000 0.00000             
Pb    core 3.2572477 -5.783104 26.795145 1.75282400 1.00000 0.00000             
Pb    core 3.1793519 -2.955959 23.757674 1.75282400 1.00000 0.00000             
Pb    core -2.235022 -6.471578 26.014533 1.75282400 1.00000 0.00000             
S     core 3.3712524 -8.938508 -2.763165 -1.7528240 1.00000 0.00000             
S     core 0.4755271 -12.00228 -2.768048 -1.7528240 1.00000 0.00000             
S     core 3.3521679 -11.79753 -5.686676 -1.7528240 1.00000 0.00000             
S     core 0.3914949 -9.022014 -5.772432 -1.7528240 1.00000 0.00000             
Pb    core 0.4135021 -9.039200 -2.823864 1.75282400 1.00000 0.00000             
Pb    core 3.4083916 -11.97397 -2.818647 1.75282400 1.00000 0.00000             
Pb    core 3.4045792 -8.947937 -5.726829 1.75282400 1.00000 0.00000             
Pb    core 0.4517287 -11.97925 -5.888591 1.75282400 1.00000 0.00000             
S     core 3.5684796 -8.750692 20.824861 -1.7528240 1.00000 0.00000             
S     core 1.6797363 -10.88732 22.963447 -1.7528240 1.00000 0.00000             
S     core 3.3157759 -11.85843 18.161329 -1.7528240 1.00000 0.00000             
S     core 0.4062656 -8.959799 17.687748 -1.7528240 1.00000 0.00000             
Pb    core -0.744139 -9.860980 22.033563 1.75282400 1.00000 0.00000             
Pb    core 3.5703973 -11.61458 21.049973 1.75282400 1.00000 0.00000             
Pb    core 3.2475800 -8.860081 17.991067 1.75282400 1.00000 0.00000             
Pb    core 0.2512392 -11.89001 18.262404 1.75282400 1.00000 0.00000             
S     core 3.4386544 -14.91776 3.1981561 -1.7528240 1.00000 0.00000             
S     core 0.7726313 -18.05914 3.4045497 -1.7528240 1.00000 0.00000             
S     core 3.6423589 -18.04181 0.5425660 -1.7528240 1.00000 0.00000             
S     core 0.4267139 -15.31802 0.2362805 -1.7528240 1.00000 0.00000             
Pb    core 0.4498696 -15.05155 3.2154081 1.75282400 1.00000 0.00000             
Pb    core 3.6219410 -17.88142 3.3819590 1.75282400 1.00000 0.00000             
Pb    core 3.4745826 -15.02416 0.2607411 1.75282400 1.00000 0.00000             
Pb    core 0.9166556 -18.06180 0.6808636 1.75282400 1.00000 0.00000             
S     core 3.3240352 -14.73122 14.959989 -1.7528240 1.00000 0.00000             
S     core 3.6140173 -17.94142 11.864619 -1.7528240 1.00000 0.00000             
S     core 0.3283081 -15.23136 12.129597 -1.7528240 1.00000 0.00000             
Pb    core 0.1299005 -14.75857 15.257975 1.75282400 1.00000 0.00000             
Pb    core 3.3564526 -14.91728 12.152835 1.75282400 1.00000 0.00000             
Pb    core 0.8930475 -17.96675 11.770678 1.75282400 1.00000 0.00000             
S     core 2.9724957 14.580041 -14.76005 -1.7528240 1.00000 0.00000             
S     core 0.0392826 11.695229 -15.20981 -1.7528240 1.00000 0.00000             
S     core 3.2063186 11.432742 -17.93126 -1.7528240 1.00000 0.00000             
Pb    core 0.1232100 14.560050 -14.78610 1.75282400 1.00000 0.00000             
Pb    core 3.0617610 11.671494 -14.95235 1.75282400 1.00000 0.00000             
Pb    core 0.4779336 11.165932 -17.96824 1.75282400 1.00000 0.00000             
S     core 2.9189217 11.905951 29.669271 -1.7528240 1.00000 0.00000             
S     core 3.0688156 20.704705 -8.945283 -1.7528240 1.00000 0.00000             
S     core -0.133678 17.827649 -9.052922 -1.7528240 1.00000 0.00000             
S     core 2.9769250 17.680310 -11.94883 -1.7528240 1.00000 0.00000             
S     core 0.4989744 20.826190 -11.86619 -1.7528240 1.00000 0.00000             
Pb    core 0.1773177 20.712655 -8.963408 1.75282400 1.00000 0.00000             
Pb    core 2.8795573 17.644557 -8.896462 1.75282400 1.00000 0.00000             
Pb    core 3.1744383 20.454459 -11.81652 1.75282400 1.00000 0.00000             
Pb    core 0.0509182 17.849092 -11.98283 1.75282400 1.00000 0.00000             
S     core 0.3201698 18.258826 26.736190 -1.7528240 1.00000 0.00000             
S     core 2.8005835 17.835407 23.839354 -1.7528240 1.00000 0.00000             
S     core 0.1866633 21.079605 23.501651 -1.7528240 1.00000 0.00000             
Pb    core 2.8932726 17.575226 26.873696 1.75282400 1.00000 0.00000             
Pb    core -0.203658 18.283308 23.947573 1.75282400 1.00000 0.00000             
Pb    core -1.395554 16.209545 26.482197 1.75282400 1.00000 0.00000             
S     core 2.5557694 26.564450 -2.974817 -1.7528240 1.00000 0.00000             
S     core -0.204614 23.556983 -2.940351 -1.7528240 1.00000 0.00000             
S     core 2.8316264 23.641763 -5.863633 -1.7528240 1.00000 0.00000             
S     core -0.155523 26.355237 -6.190790 -1.7528240 1.00000 0.00000             
Pb    core -0.351917 26.526420 -3.163067 1.75282400 1.00000 0.00000             
Pb    core 2.7333364 23.629325 -2.848104 1.75282400 1.00000 0.00000             
Pb    core 2.6076399 26.639352 -5.767644 1.75282400 1.00000 0.00000             
Pb    core -0.091161 23.560810 -5.809573 1.75282400 1.00000 0.00000             
S     core 0.0683145 23.712206 20.859319 -1.7528240 1.00000 0.00000             
S     core 2.7278880 23.879034 17.807487 -1.7528240 1.00000 0.00000             
S     core 0.0978166 26.953491 17.605087 -1.7528240 1.00000 0.00000             
Pb    core 2.8329073 23.723096 20.665800 1.75282400 1.00000 0.00000             
Pb    core 2.7846121 26.867448 17.533917 1.75282400 1.00000 0.00000             
Pb    core -0.420298 24.203984 18.059627 1.75282400 1.00000 0.00000             
S     core -0.108558 29.745156 3.0840253 -1.7528240 1.00000 0.00000             
S     core 2.7524985 29.772546 0.1795030 -1.7528240 1.00000 0.00000             
Pb    core 2.7482935 29.679683 3.0745550 1.75282400 1.00000 0.00000             
Pb    core 0.0241410 29.711568 0.3715904 1.75282400 1.00000 0.00000             
S     core 2.7624171 29.853090 11.570397 -1.7528240 1.00000 0.00000             
Pb    core 0.0323323 29.772823 11.460021 1.75282400 1.00000 0.00000             
S     core -2.686433 8.5990770 -14.79366 -1.7528240 1.00000 0.00000             
S     core -5.450527 5.6138267 -14.91422 -1.7528240 1.00000 0.00000             