# 
# Keywords:
# 
conp opti  
# 
# Options:
# 
cartesian 
S     core -3.013519 -8.968279 -8.878204 -1.7528240 1.00000 0.00000             
S     core -10.64172 -1.762938 -7.698623 -1.7528240 1.00000 0.00000             
S     core -8.892597 -8.797006 -2.828892 -1.7528240 1.00000 0.00000             
S     core 3.1149250 -2.369200 -15.01102 -1.7528240 1.00000 0.00000             
Pb    core 0.3269877 -2.295432 -14.80206 1.75282400 1.00000 0.00000             
S     core 2.3212674 -9.225368 -9.777680 -1.7528240 1.00000 0.00000             
Pb    core -0.395687 -8.381103 -8.895336 1.75282400 1.00000 0.00000             
Pb    core 2.9183782 -11.86428 -8.952255 1.75282400 1.00000 0.00000             
Pb    core 2.9537856 -8.258435 -12.32128 1.75282400 1.00000 0.00000             
Pb    core 3.4021295 -8.874732 23.744388 1.75282400 1.00000 0.00000             
S     core 2.5054715 -14.71940 -2.930704 -1.7528240 1.00000 0.00000             
Pb    core -0.172712 -14.55334 -2.936699 1.75282400 1.00000 0.00000             
S     core -2.958687 3.8818315 -14.85305 -1.7528240 1.00000 0.00000             
S     core -2.904853 -2.668177 -8.993163 -1.7528240 1.00000 0.00000             
S     core -6.809426 -5.639261 -8.859462 -1.7528240 1.00000 0.00000             
S     core -4.151875 -5.500637 -11.68866 -1.7528240 1.00000 0.00000             
S     core -7.708341 -1.851165 -10.61532 -1.7528240 1.00000 0.00000             
Pb    core -9.211717 -4.118181 -8.819381 1.75282400 1.00000 0.00000             
Pb    core -5.008753 -7.459012 -9.958203 1.75282400 1.00000 0.00000             
Pb    core -5.439694 -3.527848 -10.06495 1.75282400 1.00000 0.00000             
S     core -1.232530 -4.975896 25.826972 -1.7528240 1.00000 0.00000             
S     core -4.548418 -1.633665 25.892435 -1.7528240 1.00000 0.00000             
Pb    core -2.651606 -3.051732 24.356517 1.75282400 1.00000 0.00000             
S     core -3.053941 -8.476986 -2.988788 -1.7528240 1.00000 0.00000             
S     core -5.079370 -14.01723 -1.587605 -1.7528240 1.00000 0.00000             
S     core -1.847324 -13.90328 -5.067734 -1.7528240 1.00000 0.00000             
S     core -5.157554 -10.62333 -4.994085 -1.7528240 1.00000 0.00000             
Pb    core -6.065423 -8.732663 -3.190008 1.75282400 1.00000 0.00000             
Pb    core -4.320181 -13.08537 -4.146799 1.75282400 1.00000 0.00000             
Pb    core -3.254272 -8.831717 -5.975410 1.75282400 1.00000 0.00000             
S     core 0.7592983 -9.076236 23.517639 -1.7528240 1.00000 0.00000             
S     core -1.365369 -14.18991 17.019517 -1.7528240 1.00000 0.00000             
S     core -5.170186 -10.97821 16.819929 -1.7528240 1.00000 0.00000             
Pb    core -3.048799 -9.158868 17.552946 1.75282400 1.00000 0.00000             
S     core -2.849130 -14.70067 3.1167619 -1.7528240 1.00000 0.00000             
Pb    core -3.069673 -14.60619 0.2619230 1.75282400 1.00000 0.00000             
Pb    core -3.082349 -14.41690 11.589308 1.75282400 1.00000 0.00000             
Pb    core -3.191217 12.010993 -14.39822 1.75282400 1.00000 0.00000             
S     core -2.569310 20.808285 -8.818061 -1.7528240 1.00000 0.00000             
S     core -6.372330 17.573903 -9.002645 -1.7528240 1.00000 0.00000             
S     core -3.165153 17.484669 -11.72527 -1.7528240 1.00000 0.00000             
Pb    core -3.565151 18.180439 -8.843831 1.75282400 1.00000 0.00000             
S     core 0.6009481 20.384742 23.970646 -1.7528240 1.00000 0.00000             
S     core -4.426721 26.087430 -1.192303 -1.7528240 1.00000 0.00000             
S     core -2.522716 24.056956 -5.325133 -1.7528240 1.00000 0.00000             
Pb    core -3.054008 24.101657 -2.601101 1.75282400 1.00000 0.00000             
S     core -1.434411 25.665006 17.061717 -1.7528240 1.00000 0.00000             
S     core -9.496725 2.9934540 -9.220787 -1.7528240 1.00000 0.00000             
Pb    core -12.12952 3.4512143 -8.467708 1.75282400 1.00000 0.00000             
Pb    core -8.696737 -0.026703 -8.642500 1.75282400 1.00000 0.00000             
Pb    core -8.867300 3.5205159 -11.87616 1.75282400 1.00000 0.00000             
S     core -9.184873 -2.504593 -2.786171 -1.7528240 1.00000 0.00000             
S     core -12.24302 -5.653439 -2.414481 -1.7528240 1.00000 0.00000             
S     core -9.242067 -5.187376 -6.130788 -1.7528240 1.00000 0.00000             
S     core -14.04138 -1.506664 -4.315403 -1.7528240 1.00000 0.00000             
Pb    core -12.06939 -2.907429 -2.917490 1.75282400 1.00000 0.00000             
Pb    core -10.17292 -6.700245 -4.024805 1.75282400 1.00000 0.00000             
Pb    core -8.900971 -2.534908 -5.564423 1.75282400 1.00000 0.00000             
S     core -8.530736 -3.100598 20.923647 -1.7528240 1.00000 0.00000             
S     core -8.253555 -6.818712 17.884066 -1.7528240 1.00000 0.00000             
S     core -11.87542 -2.757816 17.923030 -1.7528240 1.00000 0.00000             
Pb    core -9.824887 -4.422264 18.798957 1.75282400 1.00000 0.00000             
S     core -9.948407 -9.651974 2.2133587 -1.7528240 1.00000 0.00000             
Pb    core -12.16593 -8.632876 3.3905488 1.75282400 1.00000 0.00000             
Pb    core -8.854144 -12.00536 3.1292295 1.75282400 1.00000 0.00000             
Pb    core -8.865539 -8.606716 -0.192594 1.75282400 1.00000 0.00000             
S     core -8.739050 -9.320922 14.584032 -1.7528240 1.00000 0.00000             
Pb    core -8.438806 -8.954358 11.983687 1.75282400 1.00000 0.00000             
S     core -7.877433 14.320552 -10.62348 -1.7528240 1.00000 0.00000             
Pb    core -8.660130 12.425726 -8.544424 1.75282400 1.00000 0.00000             
S     core -8.677668 23.839441 0.6967331 -1.7528240 1.00000 0.00000             
S     core -8.894585 20.655383 -2.778444 -1.7528240 1.00000 0.00000             
S     core -8.987899 17.728999 -5.849134 -1.7528240 1.00000 0.00000             
Pb    core -8.830708 20.511201 -5.520626 1.75282400 1.00000 0.00000             
S     core -8.055581 17.330994 18.545248 -1.7528240 1.00000 0.00000             
Pb    core -8.615530 23.954153 3.3716701 1.75282400 1.00000 0.00000             
S     core -14.93641 3.2810456 -2.507467 -1.7528240 1.00000 0.00000             
Pb    core -14.76537 0.5723286 -2.793996 1.75282400 1.00000 0.00000             
S     core -14.99689 -2.510788 3.0423748 -1.7528240 1.00000 0.00000             
Pb    core -14.96823 -2.496142 0.3193982 1.75282400 1.00000 0.00000             
Pb    core 11.792549 -2.712504 -14.96278 1.75282400 1.00000 0.00000             
S     core 14.588781 -8.411776 -9.459531 -1.7528240 1.00000 0.00000             
Pb    core 11.963434 -8.723701 -9.003406 1.75282400 1.00000 0.00000             
Pb    core 11.948643 -14.88601 -2.850251 1.75282400 1.00000 0.00000             
S     core 20.507194 -2.684787 -9.685756 -1.7528240 1.00000 0.00000             
S     core 16.220722 -4.487890 -11.51885 -1.7528240 1.00000 0.00000             
S     core 14.776319 -2.233925 -14.80654 -1.7528240 1.00000 0.00000             
Pb    core 17.680571 -2.779439 -9.392306 1.75282400 1.00000 0.00000             
S     core 16.848517 -1.638851 25.763394 -1.7528240 1.00000 0.00000             
S     core 19.501965 -10.41298 -2.466708 -1.7528240 1.00000 0.00000             
S     core 14.689690 -14.63774 -2.653011 -1.7528240 1.00000 0.00000             
S     core 17.901154 -8.858143 -5.828630 -1.7528240 1.00000 0.00000             
Pb    core 17.349526 -8.680966 -3.147396 1.75282400 1.00000 0.00000             
S     core 18.026995 -9.340925 16.934188 -1.7528240 1.00000 0.00000             
S     core 16.689771 16.858709 -10.94089 -1.7528240 1.00000 0.00000             
S     core 16.024763 25.976961 -1.850927 -1.7528240 1.00000 0.00000             
Pb    core 23.916481 3.3676977 -8.708336 1.75282400 1.00000 0.00000             
S     core 22.387131 -7.375968 -2.690734 -1.7528240 1.00000 0.00000             
S     core 23.384558 -3.762140 -6.205612 -1.7528240 1.00000 0.00000             
Pb    core 21.775519 -5.103452 -4.294065 1.75282400 1.00000 0.00000             
S     core 23.967835 -3.727712 17.753778 -1.7528240 1.00000 0.00000             
Pb    core 23.812094 -8.628014 2.4775235 1.75282400 1.00000 0.00000             
S     core 23.798026 17.866959 -2.317737 -1.7528240 1.00000 0.00000             
S     core 8.7620377 -2.434321 -14.91879 -1.7528240 1.00000 0.00000             
Pb    core 5.9154813 -2.352828 -14.96250 1.75282400 1.00000 0.00000             
S     core 9.5757652 -9.711563 -10.20203 -1.7528240 1.00000 0.00000             
S     core 5.6269028 -11.68559 -9.021572 -1.7528240 1.00000 0.00000             
S     core 5.7031338 -8.473208 -12.14098 -1.7528240 1.00000 0.00000             
Pb    core 5.3584546 -8.804540 -9.230173 1.75282400 1.00000 0.00000             
Pb    core 8.3346241 -11.89118 -9.075202 1.75282400 1.00000 0.00000             
Pb    core 8.4193381 -8.563662 -12.37540 1.75282400 1.00000 0.00000             
S     core 6.1954081 -8.933671 23.610701 -1.7528240 1.00000 0.00000             
Pb    core 8.9579981 -8.889240 23.753332 1.75282400 1.00000 0.00000             
S     core 9.2936776 -14.82246 -3.043384 -1.7528240 1.00000 0.00000             
S     core 6.0554079 23.988576 -8.546454 -1.7528240 1.00000 0.00000             
Pb    core 8.6448686 24.259209 -8.542215 1.75282400 1.00000 0.00000             
S     core 3.0125742 3.4379005 -14.84254 -1.7528240 1.00000 0.00000             
S     core 0.2494626 0.4257800 -14.87991 -1.7528240 1.00000 0.00000             
Pb    core -0.251852 3.2029858 -14.87194 1.75282400 1.00000 0.00000             
Pb    core 3.0174077 0.5146393 -14.83212 1.75282400 1.00000 0.00000             
S     core 2.9500962 -2.664004 -8.962354 -1.7528240 1.00000 0.00000             
S     core -0.005003 -5.606162 -9.022509 -1.7528240 1.00000 0.00000             
S     core 3.1261042 -5.616049 -11.93594 -1.7528240 1.00000 0.00000             
S     core 0.0302009 -2.657370 -12.05029 -1.7528240 1.00000 0.00000             
Pb    core -0.013967 -2.598909 -8.900745 1.75282400 1.00000 0.00000             
Pb    core 2.7898064 -5.535469 -9.079906 1.75282400 1.00000 0.00000             
Pb    core 2.8929641 -2.739698 -12.02695 1.75282400 1.00000 0.00000             
Pb    core -1.796615 -4.497181 -10.96621 1.75282400 1.00000 0.00000             
S     core 3.4028795 -2.885987 26.770866 -1.7528240 1.00000 0.00000             
S     core 3.3307507 -6.056943 23.657080 -1.7528240 1.00000 0.00000             
S     core 0.4018560 -2.973257 23.758693 -1.7528240 1.00000 0.00000             
Pb    core 0.5861547 -3.164054 26.701956 1.75282400 1.00000 0.00000             
Pb    core 3.2225944 -3.173129 23.793267 1.75282400 1.00000 0.00000             
Pb    core 0.3392738 -6.300112 24.007755 1.75282400 1.00000 0.00000             
S     core 2.8928678 -8.631348 -3.060494 -1.7528240 1.00000 0.00000             
S     core 0.2021453 -11.58302 -2.907943 -1.7528240 1.00000 0.00000             
S     core 2.6881452 -11.58058 -6.277936 -1.7528240 1.00000 0.00000             
S     core -0.168553 -8.857285 -6.092615 -1.7528240 1.00000 0.00000             
Pb    core -0.183329 -8.771714 -2.985380 1.75282400 1.00000 0.00000             
Pb    core 3.0136917 -11.99805 -3.065694 1.75282400 1.00000 0.00000             
Pb    core 2.7223817 -8.740856 -5.852159 1.75282400 1.00000 0.00000             
Pb    core -0.172364 -11.80088 -5.605007 1.75282400 1.00000 0.00000             
S     core 3.1884336 -9.216708 20.726521 -1.7528240 1.00000 0.00000             
S     core 3.0800681 -11.94885 17.831411 -1.7528240 1.00000 0.00000             
S     core 0.1390621 -9.197810 17.843967 -1.7528240 1.00000 0.00000             
Pb    core -0.060028 -9.001955 20.892983 1.75282400 1.00000 0.00000             
Pb    core 3.3706269 -11.99811 20.578918 1.75282400 1.00000 0.00000             
Pb    core 3.0559464 -9.001658 17.726477 1.75282400 1.00000 0.00000             
Pb    core 0.2166325 -12.01203 17.364333 1.75282400 1.00000 0.00000             
S     core 2.9434362 -14.76029 2.8842016 -1.7528240 1.00000 0.00000             
S     core -0.248895 -14.74841 -0.035129 -1.7528240 1.00000 0.00000             
Pb    core 0.0721506 -14.72926 2.8413498 1.75282400 1.00000 0.00000             
Pb    core 3.0685855 -14.83614 -0.225105 1.75282400 1.00000 0.00000             
S     core 3.1148802 -14.91585 14.449026 -1.7528240 1.00000 0.00000             
S     core -0.030131 -14.79652 11.783498 -1.7528240 1.00000 0.00000             
Pb    core 0.1743936 -14.73813 14.670518 1.75282400 1.00000 0.00000             
Pb    core 2.9086955 -14.80419 11.602425 1.75282400 1.00000 0.00000             
S     core 3.0573276 14.874699 -14.82170 -1.7528240 1.00000 0.00000             
S     core -0.133791 12.252946 -14.70260 -1.7528240 1.00000 0.00000             
Pb    core 0.3408562 14.978073 -14.75820 1.75282400 1.00000 0.00000             
Pb    core 2.8885220 12.037399 -14.66257 1.75282400 1.00000 0.00000             
S     core 2.7228082 20.914540 -8.867293 -1.7528240 1.00000 0.00000             
S     core 0.1168600 17.965932 -8.649534 -1.7528240 1.00000 0.00000             
S     core 2.6374281 18.227434 -11.71080 -1.7528240 1.00000 0.00000             
Pb    core -0.014521 20.798903 -8.278973 1.75282400 1.00000 0.00000             
Pb    core 2.9369894 18.017217 -8.643447 1.75282400 1.00000 0.00000             
Pb    core 3.0982860 20.994986 -11.60029 1.75282400 1.00000 0.00000             
Pb    core -0.461202 17.919823 -11.34171 1.75282400 1.00000 0.00000             
S     core 3.3247292 17.511870 23.977861 -1.7528240 1.00000 0.00000             
Pb    core 3.3119674 20.377020 24.102078 1.75282400 1.00000 0.00000             
Pb    core 0.4471333 17.687586 23.847814 1.75282400 1.00000 0.00000             
S     core 3.1150027 27.121355 -2.128330 -1.7528240 1.00000 0.00000             
S     core 0.0775593 24.279134 -2.450407 -1.7528240 1.00000 0.00000             
S     core 2.8909462 23.910060 -5.326609 -1.7528240 1.00000 0.00000             
Pb    core 0.3614848 27.032121 -2.187276 1.75282400 1.00000 0.00000             
Pb    core 3.0031279 24.049834 -2.522623 1.75282400 1.00000 0.00000             
Pb    core 0.1265864 23.878613 -5.373002 1.75282400 1.00000 0.00000             
S     core 2.7319345 23.582328 18.357727 -1.7528240 1.00000 0.00000             
Pb    core 3.4150881 23.622162 20.968708 1.75282400 1.00000 0.00000             
Pb    core -0.250496 23.460631 18.218825 1.75282400 1.00000 0.00000             
S     core -2.860144 9.2900605 -14.68690 -1.7528240 1.00000 0.00000             
Pb    core -2.794482 6.5180360 -14.81901 1.75282400 1.00000 0.00000             
S     core -3.018047 3.3335101 -8.811309 -1.7528240 1.00000 0.00000             
S     core -5.947785 0.5690810 -8.673899 -1.7528240 1.00000 0.00000             
S     core -3.147114 0.4232239 -11.67215 -1.7528240 1.00000 0.00000             
S     core -6.200372 3.1939109 -11.67702 -1.7528240 1.00000 0.00000             
Pb    core -5.882282 3.3017147 -8.754700 1.75282400 1.00000 0.00000             
Pb    core -3.029599 0.2214605 -8.834474 1.75282400 1.00000 0.00000             
Pb    core -3.176263 3.1846624 -12.12909 1.75282400 1.00000 0.00000             
Pb    core -5.844816 0.1499948 -11.48601 1.75282400 1.00000 0.00000             
S     core -2.362652 2.8840320 26.959429 -1.7528240 1.00000 0.00000             
S     core -2.535084 -0.014850 23.835731 -1.7528240 1.00000 0.00000             
S     core -5.509826 2.9359465 23.914714 -1.7528240 1.00000 0.00000             
Pb    core -2.662579 0.1221949 26.824480 1.75282400 1.00000 0.00000             
Pb    core -2.709173 2.8956908 23.946524 1.75282400 1.00000 0.00000             
Pb    core -5.523491 0.1922308 24.117219 1.75282400 1.00000 0.00000             
S     core -3.068806 -2.757310 -2.946585 -1.7528240 1.00000 0.00000             
S     core -6.032516 -5.757484 -3.071100 -1.7528240 1.00000 0.00000             
S     core -3.313769 -5.822372 -5.913188 -1.7528240 1.00000 0.00000             
S     core -6.094964 -2.619097 -5.774935 -1.7528240 1.00000 0.00000             
Pb    core -6.094602 -2.847103 -2.900453 1.75282400 1.00000 0.00000             
Pb    core -3.115763 -5.696870 -3.028855 1.75282400 1.00000 0.00000             
Pb    core -3.195965 -2.868764 -6.094650 1.75282400 1.00000 0.00000             
Pb    core -6.303917 -5.511214 -6.040419 1.75282400 1.00000 0.00000             
S     core -3.020405 -3.411514 21.239856 -1.7528240 1.00000 0.00000             
S     core -2.747217 -8.845368 20.285213 -1.7528240 1.00000 0.00000             
S     core -2.968118 -6.011716 17.823097 -1.7528240 1.00000 0.00000             
S     core -5.531663 -3.028080 18.035575 -1.7528240 1.00000 0.00000             
Pb    core -5.840200 -2.984029 20.841613 1.75282400 1.00000 0.00000             
Pb    core -2.711514 -6.191965 20.698480 1.75282400 1.00000 0.00000             
Pb    core -2.752534 -3.053360 17.820629 1.75282400 1.00000 0.00000             
Pb    core -5.812373 -5.734672 17.529024 1.75282400 1.00000 0.00000             
S     core -2.970035 -8.771301 2.9770529 -1.7528240 1.00000 0.00000             
S     core -6.159210 -11.63425 2.7492725 -1.7528240 1.00000 0.00000             
S     core -2.876570 -11.66494 0.2434928 -1.7528240 1.00000 0.00000             
S     core -6.039492 -8.894749 -0.032021 -1.7528240 1.00000 0.00000             
Pb    core -5.776023 -8.764888 2.8353396 1.75282400 1.00000 0.00000             
Pb    core -2.862097 -11.79912 2.9795904 1.75282400 1.00000 0.00000             
Pb    core -2.939681 -8.810507 -0.170094 1.75282400 1.00000 0.00000             
Pb    core -5.596925 -11.74587 -0.167158 1.75282400 1.00000 0.00000             
S     core -2.726844 -8.870059 14.718697 -1.7528240 1.00000 0.00000             
S     core -4.554277 -13.92556 13.883405 -1.7528240 1.00000 0.00000             
S     core -2.762449 -11.60470 11.582664 -1.7528240 1.00000 0.00000             
S     core -5.694579 -8.920082 11.683444 -1.7528240 1.00000 0.00000             
Pb    core -7.628949 -9.535248 17.004337 1.75282400 1.00000 0.00000             
Pb    core -4.009494 -13.56130 16.500049 1.75282400 1.00000 0.00000             
Pb    core -2.790160 -8.799259 11.755776 1.75282400 1.00000 0.00000             
Pb    core -4.691361 -10.97152 13.756251 1.75282400 1.00000 0.00000             
S     core -2.768494 -14.77365 8.7288511 -1.7528240 1.00000 0.00000             
Pb    core -2.683598 -14.78097 5.9168432 1.75282400 1.00000 0.00000             
S     core -2.750441 15.002527 -8.735370 -1.7528240 1.00000 0.00000             
S     core -5.899798 11.798334 -8.592615 -1.7528240 1.00000 0.00000             
S     core -2.871776 11.994560 -11.52129 -1.7528240 1.00000 0.00000             
S     core -4.783856 14.097178 -13.33091 -1.7528240 1.00000 0.00000             
Pb    core -5.953861 16.376224 -11.53971 1.75282400 1.00000 0.00000             
Pb    core -3.025747 12.104527 -8.563791 1.75282400 1.00000 0.00000             
Pb    core -2.792353 14.807974 -11.49074 1.75282400 1.00000 0.00000             
Pb    core -5.883830 12.376988 -11.34973 1.75282400 1.00000 0.00000             
S     core -2.517579 11.326579 23.922285 -1.7528240 1.00000 0.00000             
S     core -4.148781 13.436336 25.886793 -1.7528240 1.00000 0.00000             
Pb    core -2.624026 11.299533 26.783754 1.75282400 1.00000 0.00000             
Pb    core -3.019344 15.007576 23.843307 1.75282400 1.00000 0.00000             
Pb    core -5.385704 11.441905 24.207703 1.75282400 1.00000 0.00000             
S     core -3.058566 21.139646 -2.545993 -1.7528240 1.00000 0.00000             
S     core -5.920310 17.935780 -2.691573 -1.7528240 1.00000 0.00000             
S     core -3.081794 18.009322 -5.817387 -1.7528240 1.00000 0.00000             
S     core -6.125182 20.776530 -5.556040 -1.7528240 1.00000 0.00000             
Pb    core -5.975531 20.791829 -2.738397 1.75282400 1.00000 0.00000             
Pb    core -3.045037 18.111990 -2.839752 1.75282400 1.00000 0.00000             
Pb    core -3.523421 21.557339 -6.234510 1.75282400 1.00000 0.00000             
Pb    core -6.016833 17.888971 -5.952249 1.75282400 1.00000 0.00000             
S     core -1.984600 21.803144 20.437589 -1.7528240 1.00000 0.00000             
S     core -4.406093 17.272908 22.257595 -1.7528240 1.00000 0.00000             
S     core -2.772944 17.668545 18.028805 -1.7528240 1.00000 0.00000             
S     core -5.362094 20.228693 19.231688 -1.7528240 1.00000 0.00000             
Pb    core -3.991245 20.082204 21.637871 1.75282400 1.00000 0.00000             
Pb    core -2.839401 20.552242 18.062659 1.75282400 1.00000 0.00000             
Pb    core -5.339596 17.401767 19.350323 1.75282400 1.00000 0.00000             
S     core -2.578284 26.903081 3.6695986 -1.7528240 1.00000 0.00000             
S     core -5.760268 23.850475 3.3922454 -1.7528240 1.00000 0.00000             
S     core -2.743378 23.877656 0.5974919 -1.7528240 1.00000 0.00000             
Pb    core -2.914818 23.882122 3.4315008 1.75282400 1.00000 0.00000             
Pb    core -2.905683 26.776008 0.9086127 1.75282400 1.00000 0.00000             
Pb    core -5.916307 24.173249 0.3713540 1.75282400 1.00000 0.00000             
S     core -4.713112 25.729856 13.718781 -1.7528240 1.00000 0.00000             
S     core -2.634380 23.701301 12.077027 -1.7528240 1.00000 0.00000             
Pb    core -2.805147 24.119190 15.163044 1.75282400 1.00000 0.00000             
Pb    core -2.763387 26.677947 12.067014 1.75282400 1.00000 0.00000             
Pb    core -5.511339 23.695779 12.154624 1.75282400 1.00000 0.00000             
S     core -9.431682 9.4929032 -9.265637 -1.7528240 1.00000 0.00000             
S     core -12.04895 6.1833152 -8.553697 -1.7528240 1.00000 0.00000             
S     core -8.828383 6.2491812 -11.82750 -1.7528240 1.00000 0.00000             
Pb    core -12.05251 8.9117015 -8.555134 1.75282400 1.00000 0.00000             
Pb    core -9.106807 6.1755443 -8.853487 1.75282400 1.00000 0.00000             
Pb    core -8.731692 8.9648490 -11.88187 1.75282400 1.00000 0.00000             
S     core -9.041355 5.4188498 23.726474 -1.7528240 1.00000 0.00000             
S     core -8.958628 3.2917353 -2.769197 -1.7528240 1.00000 0.00000             
S     core -11.83692 0.3715959 -2.700424 -1.7528240 1.00000 0.00000             
S     core -8.920073 0.3831342 -5.691114 -1.7528240 1.00000 0.00000             
S     core -11.92481 3.1465000 -5.797355 -1.7528240 1.00000 0.00000             
Pb    core -11.95845 3.2166606 -2.827274 1.75282400 1.00000 0.00000             
Pb    core -8.925099 0.3373234 -2.748749 1.75282400 1.00000 0.00000             
Pb    core -8.969423 3.1944342 -5.708268 1.75282400 1.00000 0.00000             
Pb    core -11.90757 -0.131105 -5.648094 1.75282400 1.00000 0.00000             
S     core -8.867895 2.4481817 20.982338 -1.7528240 1.00000 0.00000             
S     core -8.741417 0.0453707 17.903140 -1.7528240 1.00000 0.00000             
S     core -11.73836 2.6931695 17.822957 -1.7528240 1.00000 0.00000             
Pb    core -10.76733 3.6862420 22.614908 1.75282400 1.00000 0.00000             
Pb    core -8.646837 -0.361698 20.663534 1.75282400 1.00000 0.00000             
Pb    core -8.861843 2.8865979 18.048645 1.75282400 1.00000 0.00000             
Pb    core -11.59978 -0.072491 17.818258 1.75282400 1.00000 0.00000             
S     core -9.036269 -2.813471 3.0898345 -1.7528240 1.00000 0.00000             
S     core -11.92047 -5.889329 3.0602247 -1.7528240 1.00000 0.00000             
S     core -8.971221 -5.835204 0.4344924 -1.7528240 1.00000 0.00000             
S     core -12.18215 -2.751254 0.1682102 -1.7528240 1.00000 0.00000             
Pb    core -12.00529 -2.799179 3.0904842 1.75282400 1.00000 0.00000             
Pb    core -8.911857 -5.671724 3.1947413 1.75282400 1.00000 0.00000             
Pb    core -8.949173 -2.835317 0.0272123 1.75282400 1.00000 0.00000             
Pb    core -11.70976 -5.560716 0.1871581 1.75282400 1.00000 0.00000             
S     core -8.792487 -3.123725 14.862707 -1.7528240 1.00000 0.00000             
S     core -11.73242 -5.888720 14.580617 -1.7528240 1.00000 0.00000             
S     core -8.864440 -6.122663 11.758794 -1.7528240 1.00000 0.00000             
S     core -11.66315 -2.883658 11.952504 -1.7528240 1.00000 0.00000             
Pb    core -11.66415 -3.182958 15.136364 1.75282400 1.00000 0.00000             
Pb    core -8.985528 -6.374468 14.975190 1.75282400 1.00000 0.00000             
Pb    core -8.809127 -3.022519 12.015649 1.75282400 1.00000 0.00000             
Pb    core -11.76137 -5.628188 11.949773 1.75282400 1.00000 0.00000             
S     core -9.409648 -9.597216 9.2465957 -1.7528240 1.00000 0.00000             
S     core -8.799529 -11.90895 5.8555224 -1.7528240 1.00000 0.00000             
S     core -11.96085 -8.639093 6.0812083 -1.7528240 1.00000 0.00000             
Pb    core -12.02205 -8.765126 8.7979020 1.75282400 1.00000 0.00000             
Pb    core -8.486646 -12.20694 8.6101963 1.75282400 1.00000 0.00000             
Pb    core -9.007825 -9.039433 6.2645084 1.75282400 1.00000 0.00000             
S     core -8.743703 15.030968 -2.523220 -1.7528240 1.00000 0.00000             
S     core -11.67495 11.943611 -2.833880 -1.7528240 1.00000 0.00000             
S     core -8.781054 12.002529 -5.613801 -1.7528240 1.00000 0.00000             
S     core -10.58031 14.169559 -7.450317 -1.7528240 1.00000 0.00000             
Pb    core -8.928450 14.941565 -5.252300 1.75282400 1.00000 0.00000             
Pb    core -8.877435 12.105829 -2.564957 1.75282400 1.00000 0.00000             
Pb    core -8.771953 16.251519 -8.535644 1.75282400 1.00000 0.00000             
Pb    core -11.66114 12.271968 -5.525491 1.75282400 1.00000 0.00000             
S     core -8.291815 14.044297 21.698860 -1.7528240 1.00000 0.00000             
S     core -8.768410 11.777415 18.303440 -1.7528240 1.00000 0.00000             
S     core -11.46043 14.738534 17.793737 -1.7528240 1.00000 0.00000             
Pb    core -8.428751 11.469998 21.134941 1.75282400 1.00000 0.00000             
Pb    core -8.836360 14.723077 18.996563 1.75282400 1.00000 0.00000             
Pb    core -11.67388 11.938262 17.892025 1.75282400 1.00000 0.00000             
S     core -9.098363 21.032691 3.2820938 -1.7528240 1.00000 0.00000             
S     core -11.83165 17.954960 3.6987866 -1.7528240 1.00000 0.00000             
S     core -8.748539 18.158199 0.3058323 -1.7528240 1.00000 0.00000             
Pb    core -11.87898 20.622034 3.6338114 1.75282400 1.00000 0.00000             
Pb    core -8.981893 17.950616 3.1705975 1.75282400 1.00000 0.00000             
Pb    core -8.829181 21.118655 0.0520311 1.75282400 1.00000 0.00000             
Pb    core -8.876965 17.853890 -2.560941 1.75282400 1.00000 0.00000             
S     core -9.632475 19.769933 15.778648 -1.7528240 1.00000 0.00000             
S     core -13.66805 16.527726 13.855242 -1.7528240 1.00000 0.00000             
S     core -8.816275 17.803697 12.018130 -1.7528240 1.00000 0.00000             
Pb    core -10.21878 17.186393 16.765458 1.75282400 1.00000 0.00000             
Pb    core -7.920997 19.777106 13.730674 1.75282400 1.00000 0.00000             
Pb    core -11.63352 17.452073 12.296673 1.75282400 1.00000 0.00000             
S     core -8.609840 23.975908 6.1624345 -1.7528240 1.00000 0.00000             
Pb    core -8.596369 23.943493 8.8491461 1.75282400 1.00000 0.00000             
S     core -14.97678 8.6414519 -2.568935 -1.7528240 1.00000 0.00000             
Pb    core -14.98444 6.0155976 -2.419489 1.75282400 1.00000 0.00000             
S     core -15.58098 3.3081231 3.3182094 -1.7528240 1.00000 0.00000             
S     core -14.98073 0.2835913 0.1596253 -1.7528240 1.00000 0.00000             
Pb    core -14.90249 0.3627612 3.1056493 1.75282400 1.00000 0.00000             
Pb    core -14.89426 3.1859076 0.3174471 1.75282400 1.00000 0.00000             
S     core -14.88693 2.9646767 14.733206 -1.7528240 1.00000 0.00000             
S     core -14.84761 0.3013919 11.892943 -1.7528240 1.00000 0.00000             
Pb    core -14.83026 0.2388038 14.607868 1.75282400 1.00000 0.00000             
Pb    core -14.79578 3.0898509 11.875988 1.75282400 1.00000 0.00000             
S     core -14.87120 -2.760444 8.4465222 -1.7528240 1.00000 0.00000             
Pb    core -14.95530 -2.527134 5.8216388 1.75282400 1.00000 0.00000             
S     core -15.00748 14.759946 3.5679115 -1.7528240 1.00000 0.00000             
S     core -14.95071 12.031353 0.6224386 -1.7528240 1.00000 0.00000             
Pb    core -14.80686 11.894334 3.4015311 1.75282400 1.00000 0.00000             
Pb    core -14.78414 14.772378 0.7993518 1.75282400 1.00000 0.00000             
S     core -14.73438 11.877327 11.902086 -1.7528240 1.00000 0.00000             
Pb    core -14.69874 14.693664 11.997156 1.75282400 1.00000 0.00000             
S     core 14.463828 3.3949144 -14.97512 -1.7528240 1.00000 0.00000             
S     core 11.659959 0.3980089 -14.89716 -1.7528240 1.00000 0.00000             
Pb    core 11.650759 3.2599403 -14.82310 1.75282400 1.00000 0.00000             
Pb    core 14.555161 0.5277629 -14.83582 1.75282400 1.00000 0.00000             
S     core 14.644804 -2.642372 -9.064057 -1.7528240 1.00000 0.00000             
S     core 11.683402 -5.751954 -9.228350 -1.7528240 1.00000 0.00000             
S     core 12.819963 -5.386334 -14.40133 -1.7528240 1.00000 0.00000             
S     core 11.696427 -2.626088 -11.92090 -1.7528240 1.00000 0.00000             
Pb    core 11.758724 -2.716215 -8.966248 1.75282400 1.00000 0.00000             