# 
# Keywords:
# 
conp opti  
# 
# Options:
# 
cartesian 
S     core -4.003563 -4.003563 -4.003563 -1.7528240 1.00000 0.00000             
Pb    core -3.996477 -3.996477 15.999095 1.75282400 1.00000 0.00000             
Pb    core -3.996477 15.999095 -3.996477 1.75282400 1.00000 0.00000             
S     core -4.003563 16.006182 16.006182 -1.7528240 1.00000 0.00000             
Pb    core 15.999095 -3.996477 -3.996477 1.75282400 1.00000 0.00000             
S     core 16.006182 -4.003563 16.006182 -1.7528240 1.00000 0.00000             
S     core 16.006182 16.006182 -4.003563 -1.7528240 1.00000 0.00000             
Pb    core 15.999095 15.999095 15.999095 1.75282400 1.00000 0.00000             
S     core 1.5950122 -4.293089 -4.293089 -1.7528240 1.00000 0.00000             
Pb    core -1.227106 -4.267512 -4.267512 1.75282400 1.00000 0.00000             
S     core -1.226147 -4.272710 16.275329 -1.7528240 1.00000 0.00000             
Pb    core 1.5956050 -4.288114 16.290732 1.75282400 1.00000 0.00000             
S     core -1.226147 16.275329 -4.272710 -1.7528240 1.00000 0.00000             
Pb    core 1.5956050 16.290732 -4.288114 1.75282400 1.00000 0.00000             
S     core 1.5950122 16.295707 16.295707 -1.7528240 1.00000 0.00000             
Pb    core -1.227106 16.270130 16.270130 1.75282400 1.00000 0.00000             
S     core -4.293089 1.5950122 -4.293089 -1.7528240 1.00000 0.00000             
Pb    core -4.267512 -1.227106 -4.267512 1.75282400 1.00000 0.00000             
S     core -4.272710 -1.226147 16.275329 -1.7528240 1.00000 0.00000             
Pb    core -4.288114 1.5956050 16.290732 1.75282400 1.00000 0.00000             
S     core -4.293089 -4.293089 1.5950122 -1.7528240 1.00000 0.00000             
Pb    core -4.267512 -4.267512 -1.227106 1.75282400 1.00000 0.00000             
S     core -4.272710 -4.272710 13.228766 -1.7528240 1.00000 0.00000             
Pb    core -4.288114 -4.288114 10.407013 1.75282400 1.00000 0.00000             
S     core -4.272710 13.228766 -4.272710 -1.7528240 1.00000 0.00000             
Pb    core -4.288114 10.407013 -4.288114 1.75282400 1.00000 0.00000             
S     core -4.293089 10.407606 16.295707 -1.7528240 1.00000 0.00000             
Pb    core -4.267512 13.229725 16.270130 1.75282400 1.00000 0.00000             
S     core -4.272710 16.275329 -1.226147 -1.7528240 1.00000 0.00000             
Pb    core -4.288114 16.290732 1.5956050 1.75282400 1.00000 0.00000             
S     core -4.293089 16.295707 10.407606 -1.7528240 1.00000 0.00000             
Pb    core -4.267512 16.270130 13.229725 1.75282400 1.00000 0.00000             
S     core 13.228766 -4.272710 -4.272710 -1.7528240 1.00000 0.00000             
Pb    core 10.407013 -4.288114 -4.288114 1.75282400 1.00000 0.00000             
S     core 10.407606 -4.293089 16.295707 -1.7528240 1.00000 0.00000             
Pb    core 13.229725 -4.267512 16.270130 1.75282400 1.00000 0.00000             
S     core 10.407606 16.295707 -4.293089 -1.7528240 1.00000 0.00000             
Pb    core 13.229725 16.270130 -4.267512 1.75282400 1.00000 0.00000             
S     core 13.228766 16.275329 16.275329 -1.7528240 1.00000 0.00000             
Pb    core 10.407013 16.290732 16.290732 1.75282400 1.00000 0.00000             
S     core 16.275329 -1.226147 -4.272710 -1.7528240 1.00000 0.00000             
Pb    core 16.290732 1.5956050 -4.288114 1.75282400 1.00000 0.00000             
S     core 16.295707 1.5950122 16.295707 -1.7528240 1.00000 0.00000             
Pb    core 16.270130 -1.227106 16.270130 1.75282400 1.00000 0.00000             
S     core 16.275329 -4.272710 -1.226147 -1.7528240 1.00000 0.00000             
Pb    core 16.290732 -4.288114 1.5956050 1.75282400 1.00000 0.00000             
S     core 16.295707 -4.293089 10.407606 -1.7528240 1.00000 0.00000             
Pb    core 16.270130 -4.267512 13.229725 1.75282400 1.00000 0.00000             
S     core 16.295707 10.407606 -4.293089 -1.7528240 1.00000 0.00000             
Pb    core 16.270130 13.229725 -4.267512 1.75282400 1.00000 0.00000             
S     core 16.275329 13.228766 16.275329 -1.7528240 1.00000 0.00000             
Pb    core 16.290732 10.407013 16.290732 1.75282400 1.00000 0.00000             
S     core 16.295707 16.295707 1.5950122 -1.7528240 1.00000 0.00000             
Pb    core 16.270130 16.270130 -1.227106 1.75282400 1.00000 0.00000             
S     core 16.275329 16.275329 13.228766 -1.7528240 1.00000 0.00000             
Pb    core 16.290732 16.290732 10.407013 1.75282400 1.00000 0.00000             
S     core 7.4349423 -4.315447 -4.315447 -1.7528240 1.00000 0.00000             
Pb    core 4.5685577 -4.310929 -4.310929 1.75282400 1.00000 0.00000             
S     core 4.5676763 -4.315447 16.318066 -1.7528240 1.00000 0.00000             
Pb    core 7.4340608 -4.310929 16.313547 1.75282400 1.00000 0.00000             
S     core 4.5676763 16.318066 -4.315447 -1.7528240 1.00000 0.00000             
Pb    core 7.4340608 16.313547 -4.310929 1.75282400 1.00000 0.00000             
S     core 7.4349423 16.318066 16.318066 -1.7528240 1.00000 0.00000             
Pb    core 4.5685577 16.313547 16.313547 1.75282400 1.00000 0.00000             
S     core 1.5473704 1.5473704 -4.398323 -1.7528240 1.00000 0.00000             
S     core -1.402242 -1.402242 -4.727681 -1.7528240 1.00000 0.00000             
S     core 1.7754419 -1.123134 -7.481490 -1.7528240 1.00000 0.00000             
S     core -1.123134 1.7754419 -7.481490 -1.7528240 1.00000 0.00000             
Pb    core -1.409371 1.6454804 -4.501419 1.75282400 1.00000 0.00000             
Pb    core 1.6454804 -1.409371 -4.501419 1.75282400 1.00000 0.00000             
Pb    core 1.7566165 1.7566165 -7.357886 1.75282400 1.00000 0.00000             
Pb    core -0.925032 -0.925032 -7.516416 1.75282400 1.00000 0.00000             
S     core 1.7577396 1.7577396 19.362320 -1.7528240 1.00000 0.00000             
S     core -0.930919 -0.930919 19.528030 -1.7528240 1.00000 0.00000             
S     core 1.6436784 -1.407105 16.503059 -1.7528240 1.00000 0.00000             
S     core -1.407105 1.6436784 16.503059 -1.7528240 1.00000 0.00000             
Pb    core -1.118717 1.7725016 19.479454 1.75282400 1.00000 0.00000             
Pb    core 1.7725016 -1.118717 19.479454 1.75282400 1.00000 0.00000             
Pb    core 1.5481693 1.5481693 16.399918 1.75282400 1.00000 0.00000             
Pb    core -1.405306 -1.405306 16.736017 1.75282400 1.00000 0.00000             
S     core 1.5473704 -4.398323 1.5473704 -1.7528240 1.00000 0.00000             
S     core -1.123134 -7.481490 1.7754419 -1.7528240 1.00000 0.00000             
S     core 1.7754419 -7.481490 -1.123134 -1.7528240 1.00000 0.00000             
S     core -1.402242 -4.727681 -1.402242 -1.7528240 1.00000 0.00000             
Pb    core -1.409371 -4.501419 1.6454804 1.75282400 1.00000 0.00000             
Pb    core 1.7566165 -7.357886 1.7566165 1.75282400 1.00000 0.00000             
Pb    core 1.6454804 -4.501419 -1.409371 1.75282400 1.00000 0.00000             
Pb    core -0.925032 -7.516416 -0.925032 1.75282400 1.00000 0.00000             
S     core 1.6436784 -4.500440 13.409724 -1.7528240 1.00000 0.00000             
S     core -0.930919 -7.525411 12.933538 -1.7528240 1.00000 0.00000             
S     core 1.7577396 -7.359701 10.244879 -1.7528240 1.00000 0.00000             
S     core -1.407105 -4.500440 10.358940 -1.7528240 1.00000 0.00000             
Pb    core -1.405306 -4.733398 13.407925 1.75282400 1.00000 0.00000             
Pb    core 1.7725016 -7.476836 13.121335 1.75282400 1.00000 0.00000             
Pb    core 1.5481693 -4.397299 10.454449 1.75282400 1.00000 0.00000             
Pb    core -1.118717 -7.476836 10.230116 1.75282400 1.00000 0.00000             
S     core 1.6436784 13.409724 -4.500440 -1.7528240 1.00000 0.00000             
S     core -1.407105 10.358940 -4.500440 -1.7528240 1.00000 0.00000             
S     core 1.7577396 10.244879 -7.359701 -1.7528240 1.00000 0.00000             
S     core -0.930919 12.933538 -7.525411 -1.7528240 1.00000 0.00000             
Pb    core -1.405306 13.407925 -4.733398 1.75282400 1.00000 0.00000             
Pb    core 1.5481693 10.454449 -4.397299 1.75282400 1.00000 0.00000             
Pb    core 1.7725016 13.121335 -7.476836 1.75282400 1.00000 0.00000             
Pb    core -1.118717 10.230116 -7.476836 1.75282400 1.00000 0.00000             
S     core 1.7754419 13.125753 19.484108 -1.7528240 1.00000 0.00000             
S     core -1.123134 10.227176 19.484108 -1.7528240 1.00000 0.00000             
S     core 1.5473704 10.455248 16.400942 -1.7528240 1.00000 0.00000             
S     core -1.402242 13.404861 16.730300 -1.7528240 1.00000 0.00000             
Pb    core -0.925032 12.927651 19.519035 1.75282400 1.00000 0.00000             
Pb    core 1.7566165 10.246002 19.360504 1.75282400 1.00000 0.00000             
Pb    core 1.6454804 13.411990 16.504038 1.75282400 1.00000 0.00000             
Pb    core -1.409371 10.357138 16.504038 1.75282400 1.00000 0.00000             
S     core 1.7577396 19.362320 1.7577396 -1.7528240 1.00000 0.00000             
S     core -1.407105 16.503059 1.6436784 -1.7528240 1.00000 0.00000             
S     core 1.6436784 16.503059 -1.407105 -1.7528240 1.00000 0.00000             
S     core -0.930919 19.528030 -0.930919 -1.7528240 1.00000 0.00000             
Pb    core -1.118717 19.479454 1.7725016 1.75282400 1.00000 0.00000             
Pb    core 1.5481693 16.399918 1.5481693 1.75282400 1.00000 0.00000             
Pb    core 1.7725016 19.479454 -1.118717 1.75282400 1.00000 0.00000             
Pb    core -1.405306 16.736017 -1.405306 1.75282400 1.00000 0.00000             
S     core 1.7754419 19.484108 13.125753 -1.7528240 1.00000 0.00000             
S     core -1.402242 16.730300 13.404861 -1.7528240 1.00000 0.00000             
S     core 1.5473704 16.400942 10.455248 -1.7528240 1.00000 0.00000             
S     core -1.123134 19.484108 10.227176 -1.7528240 1.00000 0.00000             
Pb    core -0.925032 19.519035 12.927651 1.75282400 1.00000 0.00000             
Pb    core 1.6454804 16.504038 13.411990 1.75282400 1.00000 0.00000             
Pb    core 1.7566165 19.360504 10.246002 1.75282400 1.00000 0.00000             
Pb    core -1.409371 16.504038 10.357138 1.75282400 1.00000 0.00000             
S     core -4.315447 7.4349423 -4.315447 -1.7528240 1.00000 0.00000             
Pb    core -4.310929 4.5685577 -4.310929 1.75282400 1.00000 0.00000             
S     core -4.315447 4.5676763 16.318066 -1.7528240 1.00000 0.00000             
Pb    core -4.310929 7.4340608 16.313547 1.75282400 1.00000 0.00000             
S     core -4.398323 1.5473704 1.5473704 -1.7528240 1.00000 0.00000             
S     core -7.481490 -1.123134 1.7754419 -1.7528240 1.00000 0.00000             
S     core -4.727681 -1.402242 -1.402242 -1.7528240 1.00000 0.00000             
S     core -7.481490 1.7754419 -1.123134 -1.7528240 1.00000 0.00000             
Pb    core -7.357886 1.7566165 1.7566165 1.75282400 1.00000 0.00000             
Pb    core -4.501419 -1.409371 1.6454804 1.75282400 1.00000 0.00000             
Pb    core -4.501419 1.6454804 -1.409371 1.75282400 1.00000 0.00000             
Pb    core -7.516416 -0.925032 -0.925032 1.75282400 1.00000 0.00000             
S     core -4.500440 1.6436784 13.409724 -1.7528240 1.00000 0.00000             
S     core -7.525411 -0.930919 12.933538 -1.7528240 1.00000 0.00000             
S     core -4.500440 -1.407105 10.358940 -1.7528240 1.00000 0.00000             
S     core -7.359701 1.7577396 10.244879 -1.7528240 1.00000 0.00000             
Pb    core -7.476836 1.7725016 13.121335 1.75282400 1.00000 0.00000             
Pb    core -4.733398 -1.405306 13.407925 1.75282400 1.00000 0.00000             
Pb    core -4.397299 1.5481693 10.454449 1.75282400 1.00000 0.00000             
Pb    core -7.476836 -1.118717 10.230116 1.75282400 1.00000 0.00000             
S     core -4.315447 -4.315447 7.4349423 -1.7528240 1.00000 0.00000             
Pb    core -4.310929 -4.310929 4.5685577 1.75282400 1.00000 0.00000             
S     core -4.500440 13.409724 1.6436784 -1.7528240 1.00000 0.00000             
S     core -7.359701 10.244879 1.7577396 -1.7528240 1.00000 0.00000             
S     core -4.500440 10.358940 -1.407105 -1.7528240 1.00000 0.00000             
S     core -7.525411 12.933538 -0.930919 -1.7528240 1.00000 0.00000             
Pb    core -7.476836 13.121335 1.7725016 1.75282400 1.00000 0.00000             
Pb    core -4.397299 10.454449 1.5481693 1.75282400 1.00000 0.00000             
Pb    core -4.733398 13.407925 -1.405306 1.75282400 1.00000 0.00000             
Pb    core -7.476836 10.230116 -1.118717 1.75282400 1.00000 0.00000             
S     core -4.727681 13.404861 13.404861 -1.7528240 1.00000 0.00000             
S     core -7.481490 10.227176 13.125753 -1.7528240 1.00000 0.00000             
S     core -4.398323 10.455248 10.455248 -1.7528240 1.00000 0.00000             
S     core -7.481490 13.125753 10.227176 -1.7528240 1.00000 0.00000             
Pb    core -7.516416 12.927651 12.927651 1.75282400 1.00000 0.00000             
Pb    core -4.501419 10.357138 13.411990 1.75282400 1.00000 0.00000             
Pb    core -4.501419 13.411990 10.357138 1.75282400 1.00000 0.00000             
Pb    core -7.357886 10.246002 10.246002 1.75282400 1.00000 0.00000             
S     core -4.315447 16.318066 4.5676763 -1.7528240 1.00000 0.00000             
Pb    core -4.310929 16.313547 7.4340608 1.75282400 1.00000 0.00000             
S     core 13.409724 1.6436784 -4.500440 -1.7528240 1.00000 0.00000             
S     core 10.358940 -1.407105 -4.500440 -1.7528240 1.00000 0.00000             
S     core 12.933538 -0.930919 -7.525411 -1.7528240 1.00000 0.00000             
S     core 10.244879 1.7577396 -7.359701 -1.7528240 1.00000 0.00000             
Pb    core 10.454449 1.5481693 -4.397299 1.75282400 1.00000 0.00000             
Pb    core 13.407925 -1.405306 -4.733398 1.75282400 1.00000 0.00000             
Pb    core 13.121335 1.7725016 -7.476836 1.75282400 1.00000 0.00000             
Pb    core 10.230116 -1.118717 -7.476836 1.75282400 1.00000 0.00000             
S     core 13.125753 1.7754419 19.484108 -1.7528240 1.00000 0.00000             
S     core 10.227176 -1.123134 19.484108 -1.7528240 1.00000 0.00000             
S     core 13.404861 -1.402242 16.730300 -1.7528240 1.00000 0.00000             
S     core 10.455248 1.5473704 16.400942 -1.7528240 1.00000 0.00000             
Pb    core 10.246002 1.7566165 19.360504 1.75282400 1.00000 0.00000             
Pb    core 12.927651 -0.925032 19.519035 1.75282400 1.00000 0.00000             
Pb    core 13.411990 1.6454804 16.504038 1.75282400 1.00000 0.00000             
Pb    core 10.357138 -1.409371 16.504038 1.75282400 1.00000 0.00000             
S     core 13.409724 -4.500440 1.6436784 -1.7528240 1.00000 0.00000             
S     core 10.244879 -7.359701 1.7577396 -1.7528240 1.00000 0.00000             
S     core 12.933538 -7.525411 -0.930919 -1.7528240 1.00000 0.00000             
S     core 10.358940 -4.500440 -1.407105 -1.7528240 1.00000 0.00000             
Pb    core 10.454449 -4.397299 1.5481693 1.75282400 1.00000 0.00000             
Pb    core 13.121335 -7.476836 1.7725016 1.75282400 1.00000 0.00000             
Pb    core 13.407925 -4.733398 -1.405306 1.75282400 1.00000 0.00000             
Pb    core 10.230116 -7.476836 -1.118717 1.75282400 1.00000 0.00000             
S     core 13.404861 -4.727681 13.404861 -1.7528240 1.00000 0.00000             
S     core 10.227176 -7.481490 13.125753 -1.7528240 1.00000 0.00000             
S     core 13.125753 -7.481490 10.227176 -1.7528240 1.00000 0.00000             
S     core 10.455248 -4.398323 10.455248 -1.7528240 1.00000 0.00000             
Pb    core 10.357138 -4.501419 13.411990 1.75282400 1.00000 0.00000             
Pb    core 12.927651 -7.516416 12.927651 1.75282400 1.00000 0.00000             
Pb    core 13.411990 -4.501419 10.357138 1.75282400 1.00000 0.00000             
Pb    core 10.246002 -7.357886 10.246002 1.75282400 1.00000 0.00000             
S     core 13.404861 13.404861 -4.727681 -1.7528240 1.00000 0.00000             
S     core 10.455248 10.455248 -4.398323 -1.7528240 1.00000 0.00000             
S     core 13.125753 10.227176 -7.481490 -1.7528240 1.00000 0.00000             
S     core 10.227176 13.125753 -7.481490 -1.7528240 1.00000 0.00000             
Pb    core 10.357138 13.411990 -4.501419 1.75282400 1.00000 0.00000             
Pb    core 13.411990 10.357138 -4.501419 1.75282400 1.00000 0.00000             
Pb    core 12.927651 12.927651 -7.516416 1.75282400 1.00000 0.00000             
Pb    core 10.246002 10.246002 -7.357886 1.75282400 1.00000 0.00000             
S     core 12.933538 12.933538 19.528030 -1.7528240 1.00000 0.00000             
S     core 10.244879 10.244879 19.362320 -1.7528240 1.00000 0.00000             
S     core 13.409724 10.358940 16.503059 -1.7528240 1.00000 0.00000             
S     core 10.358940 13.409724 16.503059 -1.7528240 1.00000 0.00000             
Pb    core 10.230116 13.121335 19.479454 1.75282400 1.00000 0.00000             
Pb    core 13.121335 10.230116 19.479454 1.75282400 1.00000 0.00000             
Pb    core 13.407925 13.407925 16.736017 1.75282400 1.00000 0.00000             
Pb    core 10.454449 10.454449 16.399918 1.75282400 1.00000 0.00000             
S     core 13.125753 19.484108 1.7754419 -1.7528240 1.00000 0.00000             
S     core 10.455248 16.400942 1.5473704 -1.7528240 1.00000 0.00000             
S     core 13.404861 16.730300 -1.402242 -1.7528240 1.00000 0.00000             
S     core 10.227176 19.484108 -1.123134 -1.7528240 1.00000 0.00000             
Pb    core 10.246002 19.360504 1.7566165 1.75282400 1.00000 0.00000             
Pb    core 13.411990 16.504038 1.6454804 1.75282400 1.00000 0.00000             
Pb    core 12.927651 19.519035 -0.925032 1.75282400 1.00000 0.00000             
Pb    core 10.357138 16.504038 -1.409371 1.75282400 1.00000 0.00000             
S     core 12.933538 19.528030 12.933538 -1.7528240 1.00000 0.00000             
S     core 10.358940 16.503059 13.409724 -1.7528240 1.00000 0.00000             
S     core 13.409724 16.503059 10.358940 -1.7528240 1.00000 0.00000             
S     core 10.244879 19.362320 10.244879 -1.7528240 1.00000 0.00000             
Pb    core 10.230116 19.479454 13.121335 1.75282400 1.00000 0.00000             
Pb    core 13.407925 16.736017 13.407925 1.75282400 1.00000 0.00000             
Pb    core 13.121335 19.479454 10.230116 1.75282400 1.00000 0.00000             
Pb    core 10.454449 16.399918 10.454449 1.75282400 1.00000 0.00000             
S     core 16.318066 4.5676763 -4.315447 -1.7528240 1.00000 0.00000             
Pb    core 16.313547 7.4340608 -4.310929 1.75282400 1.00000 0.00000             
S     core 16.318066 7.4349423 16.318066 -1.7528240 1.00000 0.00000             
Pb    core 16.313547 4.5685577 16.313547 1.75282400 1.00000 0.00000             
S     core 19.362320 1.7577396 1.7577396 -1.7528240 1.00000 0.00000             
S     core 16.503059 -1.407105 1.6436784 -1.7528240 1.00000 0.00000             
S     core 19.528030 -0.930919 -0.930919 -1.7528240 1.00000 0.00000             
S     core 16.503059 1.6436784 -1.407105 -1.7528240 1.00000 0.00000             
Pb    core 16.399918 1.5481693 1.5481693 1.75282400 1.00000 0.00000             
Pb    core 19.479454 -1.118717 1.7725016 1.75282400 1.00000 0.00000             
Pb    core 19.479454 1.7725016 -1.118717 1.75282400 1.00000 0.00000             
Pb    core 16.736017 -1.405306 -1.405306 1.75282400 1.00000 0.00000             
S     core 19.484108 1.7754419 13.125753 -1.7528240 1.00000 0.00000             
S     core 16.730300 -1.402242 13.404861 -1.7528240 1.00000 0.00000             
S     core 19.484108 -1.123134 10.227176 -1.7528240 1.00000 0.00000             
S     core 16.400942 1.5473704 10.455248 -1.7528240 1.00000 0.00000             
Pb    core 16.504038 1.6454804 13.411990 1.75282400 1.00000 0.00000             
Pb    core 19.519035 -0.925032 12.927651 1.75282400 1.00000 0.00000             
Pb    core 19.360504 1.7566165 10.246002 1.75282400 1.00000 0.00000             
Pb    core 16.504038 -1.409371 10.357138 1.75282400 1.00000 0.00000             
S     core 16.318066 -4.315447 4.5676763 -1.7528240 1.00000 0.00000             
Pb    core 16.313547 -4.310929 7.4340608 1.75282400 1.00000 0.00000             
S     core 19.484108 13.125753 1.7754419 -1.7528240 1.00000 0.00000             
S     core 16.400942 10.455248 1.5473704 -1.7528240 1.00000 0.00000             
S     core 19.484108 10.227176 -1.123134 -1.7528240 1.00000 0.00000             
S     core 16.730300 13.404861 -1.402242 -1.7528240 1.00000 0.00000             
Pb    core 16.504038 13.411990 1.6454804 1.75282400 1.00000 0.00000             
Pb    core 19.360504 10.246002 1.7566165 1.75282400 1.00000 0.00000             
Pb    core 19.519035 12.927651 -0.925032 1.75282400 1.00000 0.00000             
Pb    core 16.504038 10.357138 -1.409371 1.75282400 1.00000 0.00000             
S     core 19.528030 12.933538 12.933538 -1.7528240 1.00000 0.00000             
S     core 16.503059 10.358940 13.409724 -1.7528240 1.00000 0.00000             
S     core 19.362320 10.244879 10.244879 -1.7528240 1.00000 0.00000             
S     core 16.503059 13.409724 10.358940 -1.7528240 1.00000 0.00000             
Pb    core 16.736017 13.407925 13.407925 1.75282400 1.00000 0.00000             
Pb    core 19.479454 10.230116 13.121335 1.75282400 1.00000 0.00000             
Pb    core 19.479454 13.121335 10.230116 1.75282400 1.00000 0.00000             
Pb    core 16.399918 10.454449 10.454449 1.75282400 1.00000 0.00000             
S     core 16.318066 16.318066 7.4349423 -1.7528240 1.00000 0.00000             
Pb    core 16.313547 16.313547 4.5685577 1.75282400 1.00000 0.00000             
S     core 7.4570339 1.5746026 -4.351819 -1.7528240 1.00000 0.00000             
S     core 4.5234398 -1.430168 -4.480649 -1.7528240 1.00000 0.00000             
S     core 7.3949891 -1.137229 -7.448598 -1.7528240 1.00000 0.00000             
S     core 4.5690443 1.7102490 -7.328861 -1.7528240 1.00000 0.00000             
Pb    core 4.5453495 1.5753913 -4.352290 1.75282400 1.00000 0.00000             
Pb    core 7.4805476 -1.432128 -4.482733 1.75282400 1.00000 0.00000             
Pb    core 7.4334037 1.7087209 -7.325796 1.75282400 1.00000 0.00000             
Pb    core 4.6101151 -1.132655 -7.443871 1.75282400 1.00000 0.00000             
S     core 7.4335742 1.7102490 19.331480 -1.7528240 1.00000 0.00000             
S     core 4.6076294 -1.137229 19.451217 -1.7528240 1.00000 0.00000             
S     core 7.4791788 -1.430168 16.483267 -1.7528240 1.00000 0.00000             
S     core 4.5455847 1.5746026 16.354437 -1.7528240 1.00000 0.00000             
Pb    core 4.5692148 1.7087209 19.328414 1.75282400 1.00000 0.00000             
Pb    core 7.3925035 -1.132655 19.446490 1.75282400 1.00000 0.00000             
Pb    core 7.4572690 1.5753913 16.354909 1.75282400 1.00000 0.00000             
Pb    core 4.5220710 -1.432128 16.485352 1.75282400 1.00000 0.00000             
S     core 7.4570339 -4.351819 1.5746026 -1.7528240 1.00000 0.00000             
S     core 4.5690443 -7.328861 1.7102490 -1.7528240 1.00000 0.00000             
S     core 7.3949891 -7.448598 -1.137229 -1.7528240 1.00000 0.00000             
S     core 4.5234398 -4.480649 -1.430168 -1.7528240 1.00000 0.00000             
Pb    core 4.5453495 -4.352290 1.5753913 1.75282400 1.00000 0.00000             
Pb    core 7.4334037 -7.325796 1.7087209 1.75282400 1.00000 0.00000             
Pb    core 7.4805476 -4.482733 -1.432128 1.75282400 1.00000 0.00000             
Pb    core 4.6101151 -7.443871 -1.132655 1.75282400 1.00000 0.00000             
S     core 7.4791788 -4.480649 13.432786 -1.7528240 1.00000 0.00000             
S     core 4.6076294 -7.448598 13.139847 -1.7528240 1.00000 0.00000             
S     core 7.4335742 -7.328861 10.292369 -1.7528240 1.00000 0.00000             
S     core 4.5455847 -4.351819 10.428015 -1.7528240 1.00000 0.00000             
Pb    core 4.5220710 -4.482733 13.434747 1.75282400 1.00000 0.00000             
Pb    core 7.3925035 -7.443871 13.135274 1.75282400 1.00000 0.00000             
Pb    core 7.4572690 -4.352290 10.427227 1.75282400 1.00000 0.00000             
Pb    core 4.5692148 -7.325796 10.293897 1.75282400 1.00000 0.00000             
S     core 7.4791788 13.432786 -4.480649 -1.7528240 1.00000 0.00000             
S     core 4.5455847 10.428015 -4.351819 -1.7528240 1.00000 0.00000             
S     core 7.4335742 10.292369 -7.328861 -1.7528240 1.00000 0.00000             
S     core 4.6076294 13.139847 -7.448598 -1.7528240 1.00000 0.00000             
Pb    core 4.5220710 13.434747 -4.482733 1.75282400 1.00000 0.00000             
Pb    core 7.4572690 10.427227 -4.352290 1.75282400 1.00000 0.00000             
Pb    core 7.3925035 13.135274 -7.443871 1.75282400 1.00000 0.00000             
Pb    core 4.5692148 10.293897 -7.325796 1.75282400 1.00000 0.00000             
S     core 7.3949891 13.139847 19.451217 -1.7528240 1.00000 0.00000             
S     core 4.5690443 10.292369 19.331480 -1.7528240 1.00000 0.00000             
S     core 7.4570339 10.428015 16.354437 -1.7528240 1.00000 0.00000             
S     core 4.5234398 13.432786 16.483267 -1.7528240 1.00000 0.00000             
Pb    core 4.6101151 13.135274 19.446490 1.75282400 1.00000 0.00000             
Pb    core 7.4334037 10.293897 19.328414 1.75282400 1.00000 0.00000             
Pb    core 7.4805476 13.434747 16.485352 1.75282400 1.00000 0.00000             
Pb    core 4.5453495 10.427227 16.354909 1.75282400 1.00000 0.00000             
S     core 7.4335742 19.331480 1.7102490 -1.7528240 1.00000 0.00000             
S     core 4.5455847 16.354437 1.5746026 -1.7528240 1.00000 0.00000             
S     core 7.4791788 16.483267 -1.430168 -1.7528240 1.00000 0.00000             
S     core 4.6076294 19.451217 -1.137229 -1.7528240 1.00000 0.00000             
Pb    core 4.5692148 19.328414 1.7087209 1.75282400 1.00000 0.00000             
Pb    core 7.4572690 16.354909 1.5753913 1.75282400 1.00000 0.00000             
Pb    core 7.3925035 19.446490 -1.132655 1.75282400 1.00000 0.00000             
Pb    core 4.5220710 16.485352 -1.432128 1.75282400 1.00000 0.00000             
S     core 7.3949891 19.451217 13.139847 -1.7528240 1.00000 0.00000             
S     core 4.5234398 16.483267 13.432786 -1.7528240 1.00000 0.00000             
S     core 7.4570339 16.354437 10.428015 -1.7528240 1.00000 0.00000             
S     core 4.5690443 19.331480 10.292369 -1.7528240 1.00000 0.00000             
Pb    core 4.6101151 19.446490 13.135274 1.75282400 1.00000 0.00000             
Pb    core 7.4805476 16.485352 13.434747 1.75282400 1.00000 0.00000             
Pb    core 7.4334037 19.328414 10.293897 1.75282400 1.00000 0.00000             
Pb    core 4.5453495 16.354909 10.427227 1.75282400 1.00000 0.00000             
S     core 1.5746026 7.4570339 -4.351819 -1.7528240 1.00000 0.00000             
S     core -1.430168 4.5234398 -4.480649 -1.7528240 1.00000 0.00000             
S     core 1.7102490 4.5690443 -7.328861 -1.7528240 1.00000 0.00000             
S     core -1.137229 7.3949891 -7.448598 -1.7528240 1.00000 0.00000             
Pb    core -1.432128 7.4805476 -4.482733 1.75282400 1.00000 0.00000             
Pb    core 1.5753913 4.5453495 -4.352290 1.75282400 1.00000 0.00000             
Pb    core 1.7087209 7.4334037 -7.325796 1.75282400 1.00000 0.00000             
Pb    core -1.132655 4.6101151 -7.443871 1.75282400 1.00000 0.00000             
S     core 1.7102490 7.4335742 19.331480 -1.7528240 1.00000 0.00000             
S     core -1.137229 4.6076294 19.451217 -1.7528240 1.00000 0.00000             
S     core 1.5746026 4.5455847 16.354437 -1.7528240 1.00000 0.00000             
S     core -1.430168 7.4791788 16.483267 -1.7528240 1.00000 0.00000             
Pb    core -1.132655 7.3925035 19.446490 1.75282400 1.00000 0.00000             
Pb    core 1.7087209 4.5692148 19.328414 1.75282400 1.00000 0.00000             
Pb    core 1.5753913 7.4572690 16.354909 1.75282400 1.00000 0.00000             
Pb    core -1.432128 4.5220710 16.485352 1.75282400 1.00000 0.00000             
S     core 1.5168970 1.5168970 1.5168970 -1.7528240 1.00000 0.00000             
S     core -1.481842 -1.481842 1.4801306 -1.7528240 1.00000 0.00000             
S     core 1.4801306 -1.481842 -1.481842 -1.7528240 1.00000 0.00000             
S     core -1.481842 1.4801306 -1.481842 -1.7528240 1.00000 0.00000             
Pb    core -1.435161 1.5348821 1.5348821 1.75282400 1.00000 0.00000             
Pb    core 1.5348821 -1.435161 1.5348821 1.75282400 1.00000 0.00000             
Pb    core 1.5348821 1.5348821 -1.435161 1.75282400 1.00000 0.00000             
Pb    core -1.415151 -1.415151 -1.415151 1.75282400 1.00000 0.00000             
S     core 1.5346994 1.5346994 13.437211 -1.7528240 1.00000 0.00000             
S     core -1.417638 -1.417638 13.420256 -1.7528240 1.00000 0.00000             
S     core 1.5346994 -1.434593 10.467919 -1.7528240 1.00000 0.00000             
S     core -1.434593 1.5346994 10.467919 -1.7528240 1.00000 0.00000             
Pb    core -1.481567 1.4785567 13.484185 1.75282400 1.00000 0.00000             
Pb    core 1.4785567 -1.481567 13.484185 1.75282400 1.00000 0.00000             
Pb    core 1.5172775 1.5172775 10.485341 1.75282400 1.00000 0.00000             
Pb    core -1.481567 -1.481567 10.524061 1.75282400 1.00000 0.00000             
S     core 1.5746026 -4.351819 7.4570339 -1.7528240 1.00000 0.00000             