# 
# Keywords:
# 
conp opti  
# 
# Options:
# 
cartesian 
S     core -2.742725 -2.755844 -9.237362 -1.7528240 1.00000 0.00000             
S     core -5.351310 -5.368240 -8.893812 -1.7528240 1.00000 0.00000             
Pb    core -5.637636 -2.650551 -8.776338 1.75282400 1.00000 0.00000             
Pb    core -2.626082 -5.666104 -8.778489 1.75282400 1.00000 0.00000             
Pb    core -2.339300 -2.368537 -12.01565 1.75282400 1.00000 0.00000             
Pb    core -2.355170 -2.410271 23.994495 1.75282400 1.00000 0.00000             
S     core -2.765239 -9.214144 -2.771118 -1.7528240 1.00000 0.00000             
S     core -5.363478 -8.879002 -5.385868 -1.7528240 1.00000 0.00000             
Pb    core -5.652243 -8.761822 -2.666008 1.75282400 1.00000 0.00000             
Pb    core -2.398351 -12.00230 -2.373226 1.75282400 1.00000 0.00000             
Pb    core -2.636518 -8.769931 -5.677854 1.75282400 1.00000 0.00000             
S     core -5.354388 -8.906655 17.354489 -1.7528240 1.00000 0.00000             
Pb    core -2.632356 -8.793382 17.643890 1.75282400 1.00000 0.00000             
S     core -5.389674 17.372274 -8.859341 -1.7528240 1.00000 0.00000             
Pb    core -2.669464 17.666702 -8.749449 1.75282400 1.00000 0.00000             
Pb    core -2.398374 24.005098 -2.344949 1.75282400 1.00000 0.00000             
S     core -9.215066 -2.767895 -2.774799 -1.7528240 1.00000 0.00000             
S     core -8.860934 -5.374572 -5.388581 -1.7528240 1.00000 0.00000             
Pb    core -11.99216 -2.386472 -2.385116 1.75282400 1.00000 0.00000             
Pb    core -8.744698 -5.673211 -2.669964 1.75282400 1.00000 0.00000             
Pb    core -8.742678 -2.657193 -5.679541 1.75282400 1.00000 0.00000             
S     core -8.862459 -5.405336 17.356564 -1.7528240 1.00000 0.00000             
Pb    core -8.750172 -2.687385 17.650316 1.75282400 1.00000 0.00000             
S     core -8.893497 17.363094 -5.353823 -1.7528240 1.00000 0.00000             
Pb    core -8.780100 17.650984 -2.634466 1.75282400 1.00000 0.00000             
S     core -8.890959 17.332294 17.385749 -1.7528240 1.00000 0.00000             
S     core 17.424395 -5.270183 -8.956497 -1.7528240 1.00000 0.00000             
Pb    core 17.685230 -2.575862 -8.774676 1.75282400 1.00000 0.00000             
S     core 17.468512 -8.779584 -5.468388 -1.7528240 1.00000 0.00000             
Pb    core 17.587613 -8.836447 -2.709302 1.75282400 1.00000 0.00000             
S     core 17.385968 -8.878830 17.363612 -1.7528240 1.00000 0.00000             
S     core 17.349023 17.433251 -8.856906 -1.7528240 1.00000 0.00000             
Pb    core 23.991247 -2.348331 -2.396234 1.75282400 1.00000 0.00000             
S     core 3.1127694 -2.840882 -8.979878 -1.7528240 1.00000 0.00000             
S     core 0.2329640 -5.688764 -8.835907 -1.7528240 1.00000 0.00000             
S     core 0.3836654 -2.517991 -12.00569 -1.7528240 1.00000 0.00000             
Pb    core 0.2181824 -2.831765 -8.989548 1.75282400 1.00000 0.00000             
Pb    core 3.1421671 -5.731429 -8.822527 1.75282400 1.00000 0.00000             
Pb    core 3.2082413 -2.554509 -11.93318 1.75282400 1.00000 0.00000             
S     core 0.3726559 -2.564935 23.981526 -1.7528240 1.00000 0.00000             
Pb    core 3.1909485 -2.596070 23.913590 1.75282400 1.00000 0.00000             
S     core 3.0778807 -8.954139 -2.868385 -1.7528240 1.00000 0.00000             
S     core 0.3147523 -11.98743 -2.541826 -1.7528240 1.00000 0.00000             
S     core 0.2194816 -8.815328 -5.715634 -1.7528240 1.00000 0.00000             
Pb    core 0.1957198 -8.980118 -2.848985 1.75282400 1.00000 0.00000             
Pb    core 3.1278693 -11.93052 -2.572452 1.75282400 1.00000 0.00000             
Pb    core 3.1343033 -8.821402 -5.742467 1.75282400 1.00000 0.00000             
S     core 0.2313636 -8.839759 17.683978 -1.7528240 1.00000 0.00000             
Pb    core 3.1217855 -8.837452 17.708774 1.75282400 1.00000 0.00000             
S     core 0.1957050 17.710416 -8.800935 -1.7528240 1.00000 0.00000             
Pb    core 3.0827354 17.745674 -8.799229 1.75282400 1.00000 0.00000             
S     core 0.3299156 23.995884 -2.505365 -1.7528240 1.00000 0.00000             
Pb    core 3.1475534 23.936075 -2.538035 1.75282400 1.00000 0.00000             
S     core -2.845273 3.1000818 -8.971862 -1.7528240 1.00000 0.00000             
S     core -5.686310 0.2198138 -8.826341 -1.7528240 1.00000 0.00000             
S     core -2.518423 0.3630699 -11.99947 -1.7528240 1.00000 0.00000             
Pb    core -5.717921 3.0994655 -8.820772 1.75282400 1.00000 0.00000             
Pb    core -2.814342 0.1879156 -8.987991 1.75282400 1.00000 0.00000             
Pb    core -2.548085 3.1766786 -11.93310 1.75282400 1.00000 0.00000             
S     core -2.523532 0.3198328 23.983962 -1.7528240 1.00000 0.00000             
Pb    core -2.557139 3.1351416 23.923100 1.75282400 1.00000 0.00000             
S     core -2.911649 -2.921351 -2.933722 -1.7528240 1.00000 0.00000             
S     core -5.881806 -5.892485 -2.741259 -1.7528240 1.00000 0.00000             
S     core -2.722270 -5.895645 -5.910506 -1.7528240 1.00000 0.00000             
S     core -5.878011 -2.726115 -5.906731 -1.7528240 1.00000 0.00000             
Pb    core -5.875586 -2.943742 -2.950477 1.75282400 1.00000 0.00000             
Pb    core -2.913677 -5.908898 -2.950086 1.75282400 1.00000 0.00000             
Pb    core -2.910886 -2.941610 -5.912277 1.75282400 1.00000 0.00000             
Pb    core -6.244899 -6.274427 -6.289464 1.75282400 1.00000 0.00000             
S     core -2.748879 -2.793628 21.214997 -1.7528240 1.00000 0.00000             
S     core -5.356493 -5.405309 20.862534 -1.7528240 1.00000 0.00000             
S     core -2.715869 -5.921914 17.879695 -1.7528240 1.00000 0.00000             
S     core -5.882071 -2.758050 17.882122 -1.7528240 1.00000 0.00000             
Pb    core -5.650271 -2.687361 20.750221 1.75282400 1.00000 0.00000             
Pb    core -2.635560 -5.699233 20.746691 1.75282400 1.00000 0.00000             
Pb    core -2.921656 -2.967719 17.883790 1.75282400 1.00000 0.00000             
Pb    core -6.253740 -6.306102 18.253818 1.75282400 1.00000 0.00000             
S     core -2.842194 -8.969836 3.0844811 -1.7528240 1.00000 0.00000             
S     core -2.553230 -11.98851 0.3563158 -1.7528240 1.00000 0.00000             
S     core -5.695003 -8.818491 0.2018529 -1.7528240 1.00000 0.00000             
Pb    core -5.710628 -8.828209 3.0843942 1.75282400 1.00000 0.00000             
Pb    core -2.549330 -11.93630 3.1676847 1.75282400 1.00000 0.00000             
Pb    core -2.819550 -8.980773 0.1771454 1.75282400 1.00000 0.00000             
S     core -2.745135 -9.247006 14.745240 -1.7528240 1.00000 0.00000             
S     core -2.518641 -12.00886 11.625979 -1.7528240 1.00000 0.00000             
S     core -5.683870 -8.839807 11.768735 -1.7528240 1.00000 0.00000             
Pb    core -5.643786 -8.793409 14.632456 1.75282400 1.00000 0.00000             
Pb    core -2.350028 -12.03009 14.350154 1.75282400 1.00000 0.00000             
Pb    core -2.813198 -9.001456 11.791704 1.75282400 1.00000 0.00000             
S     core -2.775200 14.767012 -9.216036 -1.7528240 1.00000 0.00000             
S     core -5.706928 11.785725 -8.810063 -1.7528240 1.00000 0.00000             
S     core -2.541075 11.647755 -11.98387 -1.7528240 1.00000 0.00000             
Pb    core -5.675733 14.650100 -8.753604 1.75282400 1.00000 0.00000             
Pb    core -2.839924 11.812840 -8.973621 1.75282400 1.00000 0.00000             
Pb    core -2.381848 14.374291 -11.99784 1.75282400 1.00000 0.00000             
S     core -2.539292 11.602107 23.998721 -1.7528240 1.00000 0.00000             
Pb    core -2.380217 14.330007 24.019253 1.75282400 1.00000 0.00000             
S     core -2.785436 21.225405 -2.738963 -1.7528240 1.00000 0.00000             
S     core -5.911626 17.886543 -2.709388 -1.7528240 1.00000 0.00000             
S     core -2.748020 17.896299 -5.877902 -1.7528240 1.00000 0.00000             
S     core -5.395082 20.872804 -5.348751 -1.7528240 1.00000 0.00000             
Pb    core -5.686795 20.755117 -2.629928 1.75282400 1.00000 0.00000             
Pb    core -2.953575 17.894361 -2.920904 1.75282400 1.00000 0.00000             
Pb    core -2.675203 20.764107 -5.644786 1.75282400 1.00000 0.00000             
Pb    core -6.290049 18.266689 -6.255785 1.75282400 1.00000 0.00000             
S     core -5.385856 17.332322 20.890855 -1.7528240 1.00000 0.00000             
S     core -2.744079 17.862946 17.910534 -1.7528240 1.00000 0.00000             
S     core -5.391319 20.841528 17.391188 -1.7528240 1.00000 0.00000             
Pb    core -2.666318 17.628421 20.779857 1.75282400 1.00000 0.00000             
Pb    core -2.671533 20.732202 17.684983 1.75282400 1.00000 0.00000             
Pb    core -6.288910 18.234764 18.288803 1.75282400 1.00000 0.00000             
S     core -2.561022 23.985829 0.3846581 -1.7528240 1.00000 0.00000             
Pb    core -2.591037 23.917639 3.2010029 1.75282400 1.00000 0.00000             
S     core -2.558816 23.969074 11.667611 -1.7528240 1.00000 0.00000             
Pb    core -2.396232 23.981174 14.396083 1.75282400 1.00000 0.00000             
S     core -8.961560 3.0857943 -2.859420 -1.7528240 1.00000 0.00000             
S     core -11.98458 0.3446213 -2.541794 -1.7528240 1.00000 0.00000             
S     core -8.807836 0.2129263 -5.707679 -1.7528240 1.00000 0.00000             
Pb    core -11.91942 3.1586955 -2.571007 1.75282400 1.00000 0.00000             
Pb    core -8.965558 0.1758659 -2.844309 1.75282400 1.00000 0.00000             
Pb    core -8.802889 3.0935474 -5.739210 1.75282400 1.00000 0.00000             
S     core -8.809910 0.1811856 17.690249 -1.7528240 1.00000 0.00000             
Pb    core -8.808696 3.0634967 17.725841 1.75282400 1.00000 0.00000             
S     core -8.955644 -2.869790 3.0817878 -1.7528240 1.00000 0.00000             
S     core -8.807964 -5.706525 0.1992385 -1.7528240 1.00000 0.00000             
S     core -11.98276 -2.547781 0.3446626 -1.7528240 1.00000 0.00000             
Pb    core -11.91243 -2.588145 3.1601560 1.75282400 1.00000 0.00000             
Pb    core -8.794347 -5.751505 3.0833135 1.75282400 1.00000 0.00000             
Pb    core -8.962583 -2.846842 0.1728872 1.75282400 1.00000 0.00000             
S     core -9.214941 -2.793679 14.748926 -1.7528240 1.00000 0.00000             
S     core -8.804921 -5.725409 11.770229 -1.7528240 1.00000 0.00000             
S     core -11.98146 -2.565032 11.627385 -1.7528240 1.00000 0.00000             
Pb    core -11.99444 -2.410346 14.355210 1.75282400 1.00000 0.00000             
Pb    core -8.746610 -5.699284 14.635633 1.75282400 1.00000 0.00000             
Pb    core -8.964922 -2.864280 11.797431 1.75282400 1.00000 0.00000             
S     core -9.238251 14.749390 -2.748708 -1.7528240 1.00000 0.00000             
S     core -11.99905 11.625314 -2.525252 -1.7528240 1.00000 0.00000             
S     core -8.826152 11.778469 -5.690512 -1.7528240 1.00000 0.00000             
Pb    core -12.01804 14.352234 -2.360720 1.75282400 1.00000 0.00000             
Pb    core -8.985566 11.798540 -2.826873 1.75282400 1.00000 0.00000             
Pb    core -8.775218 14.643304 -5.653965 1.75282400 1.00000 0.00000             
S     core -8.825414 11.746130 17.705659 -1.7528240 1.00000 0.00000             
Pb    core -8.775473 14.611848 17.675238 1.75282400 1.00000 0.00000             
S     core -8.834830 17.683464 0.2333729 -1.7528240 1.00000 0.00000             
Pb    core -8.830909 17.711015 3.1177530 1.75282400 1.00000 0.00000             
S     core -8.834064 17.667669 11.799776 -1.7528240 1.00000 0.00000             
Pb    core -8.779959 17.628370 14.666208 1.75282400 1.00000 0.00000             
S     core 14.784517 -2.691994 -9.222832 -1.7528240 1.00000 0.00000             
S     core 11.826488 -5.633375 -8.866327 -1.7528240 1.00000 0.00000             
S     core 11.664429 -2.479133 -12.02246 -1.7528240 1.00000 0.00000             
Pb    core 11.849269 -2.805519 -8.975799 1.75282400 1.00000 0.00000             
Pb    core 14.711861 -5.675112 -8.766717 1.75282400 1.00000 0.00000             
Pb    core 14.396312 -2.348399 -11.99118 1.75282400 1.00000 0.00000             
S     core 11.655381 -2.547603 23.982839 -1.7528240 1.00000 0.00000             
Pb    core 14.385160 -2.386274 23.992235 1.75282400 1.00000 0.00000             
S     core 14.759144 -8.696662 -2.759037 -1.7528240 1.00000 0.00000             
S     core 11.335264 -12.00046 -2.675253 -1.7528240 1.00000 0.00000             
S     core 11.813285 -8.754333 -5.791387 -1.7528240 1.00000 0.00000             
Pb    core 11.957619 -9.279154 -2.910263 1.75282400 1.00000 0.00000             
Pb    core 14.709428 -8.836469 -5.587504 1.75282400 1.00000 0.00000             
S     core 11.798245 -8.818362 17.695125 -1.7528240 1.00000 0.00000             
Pb    core 14.666106 -8.761671 17.652369 1.75282400 1.00000 0.00000             
S     core 11.760219 17.741727 -8.799535 -1.7528240 1.00000 0.00000             
Pb    core 14.628151 17.709791 -8.747382 1.75282400 1.00000 0.00000             
S     core 11.612176 24.020028 -2.502461 -1.7528240 1.00000 0.00000             
Pb    core 14.341858 24.037097 -2.341988 1.75282400 1.00000 0.00000             
S     core 17.717570 0.3086051 -8.836592 -1.7528240 1.00000 0.00000             
Pb    core 17.740034 3.1655878 -8.819778 1.75282400 1.00000 0.00000             
S     core 21.222897 -2.691943 -2.784435 -1.7528240 1.00000 0.00000             
S     core 17.946209 -5.817379 -2.788810 -1.7528240 1.00000 0.00000             
S     core 20.956603 -5.270158 -5.424281 -1.7528240 1.00000 0.00000             
S     core 17.917088 -2.626904 -5.917015 -1.7528240 1.00000 0.00000             
Pb    core 17.912129 -2.913211 -2.958127 1.75282400 1.00000 0.00000             
Pb    core 20.766810 -5.675068 -2.711746 1.75282400 1.00000 0.00000             
Pb    core 20.774746 -2.575843 -5.685154 1.75282400 1.00000 0.00000             
Pb    core 18.288943 -6.211894 -6.288835 1.75282400 1.00000 0.00000             
S     core 17.388650 -5.374369 20.861037 -1.7528240 1.00000 0.00000             
S     core 20.893886 -5.368041 17.351415 -1.7528240 1.00000 0.00000             
S     core 17.906781 -2.725938 17.878088 -1.7528240 1.00000 0.00000             
Pb    core 17.679587 -2.656989 20.742753 1.75282400 1.00000 0.00000             
Pb    core 20.776387 -2.650351 17.637714 1.75282400 1.00000 0.00000             
Pb    core 18.289541 -6.274247 18.245006 1.75282400 1.00000 0.00000             
S     core 17.791540 -8.754251 0.1868165 -1.7528240 1.00000 0.00000             
Pb    core 17.714559 -8.847996 3.0165912 1.75282400 1.00000 0.00000             
S     core 17.715739 -8.815209 11.780651 -1.7528240 1.00000 0.00000             
Pb    core 17.677957 -8.769785 14.636651 1.75282400 1.00000 0.00000             
S     core 17.689247 11.851889 -8.810505 -1.7528240 1.00000 0.00000             
Pb    core 17.649982 14.711657 -8.752171 1.75282400 1.00000 0.00000             
S     core 17.875090 17.937507 -2.705095 -1.7528240 1.00000 0.00000             
S     core 20.856830 17.433277 -5.349094 -1.7528240 1.00000 0.00000             
S     core 17.343373 20.926508 -5.343475 -1.7528240 1.00000 0.00000             
Pb    core 17.641485 20.802378 -2.625790 1.75282400 1.00000 0.00000             
Pb    core 20.747299 17.709840 -2.628225 1.75282400 1.00000 0.00000             
Pb    core 18.251080 18.321224 -6.251159 1.75282400 1.00000 0.00000             
S     core 17.353717 17.363295 20.893419 -1.7528240 1.00000 0.00000             
S     core 20.859238 17.372474 17.389601 -1.7528240 1.00000 0.00000             
S     core 17.348620 20.872979 17.394976 -1.7528240 1.00000 0.00000             
Pb    core 18.255678 18.266871 18.289967 1.75282400 1.00000 0.00000             
S     core 24.004268 0.4003128 -2.550924 -1.7528240 1.00000 0.00000             
Pb    core 23.931062 3.2095017 -2.575429 1.75282400 1.00000 0.00000             
S     core 24.022537 -2.479037 0.3356495 -1.7528240 1.00000 0.00000             
Pb    core 23.924691 -2.549337 3.1426156 1.75282400 1.00000 0.00000             
S     core 24.005752 -2.517820 11.616418 -1.7528240 1.00000 0.00000             
Pb    core 24.015705 -2.368343 14.339382 1.75282400 1.00000 0.00000             
S     core 23.986390 11.690851 -2.523703 -1.7528240 1.00000 0.00000             
Pb    core 23.998256 14.414965 -2.356161 1.75282400 1.00000 0.00000             
S     core 8.9271312 -2.825205 -8.982006 -1.7528240 1.00000 0.00000             
S     core 6.0210667 -5.717585 -8.847579 -1.7528240 1.00000 0.00000             
S     core 6.0221087 -2.543037 -11.94475 -1.7528240 1.00000 0.00000             
Pb    core 6.0370770 -2.860096 -8.964656 1.75282400 1.00000 0.00000             
Pb    core 8.9607624 -5.737691 -8.810069 1.75282400 1.00000 0.00000             
Pb    core 8.8574646 -2.549444 -11.92462 1.75282400 1.00000 0.00000             
S     core 6.0136269 -2.597489 23.915669 -1.7528240 1.00000 0.00000             
Pb    core 8.8398874 -2.587988 23.912499 1.75282400 1.00000 0.00000             
S     core 8.8749159 -8.940952 -2.880095 -1.7528240 1.00000 0.00000             
S     core 5.8901228 -11.92602 -2.589574 -1.7528240 1.00000 0.00000             
S     core 6.0027113 -8.813729 -5.768568 -1.7528240 1.00000 0.00000             
Pb    core 6.0186546 -8.966856 -2.887286 1.75282400 1.00000 0.00000             
Pb    core 8.6940006 -11.99259 -2.583971 1.75282400 1.00000 0.00000             
Pb    core 8.9835026 -8.848021 -5.714491 1.75282400 1.00000 0.00000             
S     core 6.0142392 -8.832602 17.728014 -1.7528240 1.00000 0.00000             
Pb    core 8.9157044 -8.828100 17.710746 1.75282400 1.00000 0.00000             
S     core 5.9775814 17.767077 -8.801506 -1.7528240 1.00000 0.00000             
Pb    core 8.8766155 17.760566 -8.798599 1.75282400 1.00000 0.00000             
S     core 5.9708949 23.942030 -2.545162 -1.7528240 1.00000 0.00000             
Pb    core 8.7963198 23.947815 -2.536457 1.75282400 1.00000 0.00000             
S     core 3.0716566 3.0822236 -8.783003 -1.7528240 1.00000 0.00000             
S     core 0.1448216 0.1440182 -8.884311 -1.7528240 1.00000 0.00000             
S     core 3.1694835 0.3015216 -11.81197 -1.7528240 1.00000 0.00000             
S     core 0.2921424 3.1671081 -11.80986 -1.7528240 1.00000 0.00000             
Pb    core 0.1410326 3.0788889 -8.820492 1.75282400 1.00000 0.00000             
Pb    core 3.1016344 0.1271132 -8.822586 1.75282400 1.00000 0.00000             
Pb    core 3.1599375 3.1558280 -11.76094 1.75282400 1.00000 0.00000             
Pb    core 0.3449883 0.3301216 -11.84827 1.75282400 1.00000 0.00000             
S     core 3.1636047 0.2530132 23.795446 -1.7528240 1.00000 0.00000             
S     core 0.2877859 3.1204903 23.799909 -1.7528240 1.00000 0.00000             
Pb    core 3.1511897 3.1122542 23.751425 1.75282400 1.00000 0.00000             
Pb    core 0.3334663 0.2873840 23.831848 1.75282400 1.00000 0.00000             
S     core 3.0256872 -2.925721 -2.946932 -1.7528240 1.00000 0.00000             
S     core 0.0732695 -5.929812 -2.914267 -1.7528240 1.00000 0.00000             
S     core 3.0913534 -5.908778 -5.932018 -1.7528240 1.00000 0.00000             
S     core 0.0816908 -2.893906 -5.949248 -1.7528240 1.00000 0.00000             
Pb    core 0.0681027 -2.948392 -2.954077 1.75282400 1.00000 0.00000             
Pb    core 3.0762867 -5.912130 -2.914920 1.75282400 1.00000 0.00000             
Pb    core 3.0790413 -2.905962 -5.913513 1.75282400 1.00000 0.00000             
Pb    core 0.1891549 -5.916751 -5.926879 1.75282400 1.00000 0.00000             
S     core 3.1066231 -2.878705 20.955465 -1.7528240 1.00000 0.00000             
S     core 0.2298417 -5.725337 20.805006 -1.7528240 1.00000 0.00000             
S     core 3.0922058 -5.933583 17.900195 -1.7528240 1.00000 0.00000             
S     core 0.0824488 -2.922604 17.925681 -1.7528240 1.00000 0.00000             
Pb    core 0.2026170 -2.864208 20.964983 1.75282400 1.00000 0.00000             
Pb    core 3.1197732 -5.760041 20.794783 1.75282400 1.00000 0.00000             
Pb    core 3.0609731 -2.922934 17.886121 1.75282400 1.00000 0.00000             
Pb    core 0.1809186 -5.937109 17.893140 1.75282400 1.00000 0.00000             
S     core 3.0773797 -8.786324 3.0513764 -1.7528240 1.00000 0.00000             
S     core 0.2849384 -11.81160 3.1452091 -1.7528240 1.00000 0.00000             
S     core 3.1308082 -11.80976 0.2774565 -1.7528240 1.00000 0.00000             
S     core 0.1319923 -8.876789 0.1218770 -1.7528240 1.00000 0.00000             
Pb    core 0.1553050 -8.827236 3.0577358 1.75282400 1.00000 0.00000             
Pb    core 3.1689949 -11.77075 3.1247457 1.75282400 1.00000 0.00000             
Pb    core 3.1087771 -8.830876 0.1037570 1.75282400 1.00000 0.00000             
Pb    core 0.3166540 -11.84550 0.3125234 1.75282400 1.00000 0.00000             
S     core 3.1078264 -8.980379 14.837610 -1.7528240 1.00000 0.00000             
S     core 0.3741459 -12.00883 14.518771 -1.7528240 1.00000 0.00000             
S     core 3.1677334 -11.81827 11.701936 -1.7528240 1.00000 0.00000             
S     core 0.1466397 -8.891478 11.853466 -1.7528240 1.00000 0.00000             
Pb    core 0.2083988 -9.001433 14.813306 1.75282400 1.00000 0.00000             
Pb    core 3.1929378 -11.94631 14.539866 1.75282400 1.00000 0.00000             
Pb    core 3.0993296 -8.832728 11.848345 1.75282400 1.00000 0.00000             
Pb    core 0.3433241 -11.85898 11.656804 1.75282400 1.00000 0.00000             
S     core 3.0793382 14.871676 -8.954582 -1.7528240 1.00000 0.00000             
S     core 0.1238385 11.878698 -8.867849 -1.7528240 1.00000 0.00000             
S     core 3.1455238 11.737634 -11.79691 -1.7528240 1.00000 0.00000             
S     core 0.3447362 14.547285 -11.97947 -1.7528240 1.00000 0.00000             
Pb    core 0.1757821 14.841982 -8.969323 1.75282400 1.00000 0.00000             
Pb    core 3.0706296 11.886203 -8.808855 1.75282400 1.00000 0.00000             
Pb    core 3.1628744 14.579620 -11.91791 1.75282400 1.00000 0.00000             
Pb    core 0.3165935 11.687235 -11.83408 1.75282400 1.00000 0.00000             
S     core 3.1472018 11.686827 23.811690 -1.7528240 1.00000 0.00000             
S     core 0.3478424 14.497680 24.002761 -1.7528240 1.00000 0.00000             
Pb    core 3.1654900 14.531048 23.940184 1.75282400 1.00000 0.00000             
Pb    core 0.3166311 11.641160 23.848144 1.75282400 1.00000 0.00000             
S     core 3.0696654 20.977005 -2.831832 -1.7528240 1.00000 0.00000             
S     core 0.0524113 17.940506 -2.881867 -1.7528240 1.00000 0.00000             
S     core 3.0583484 17.928765 -5.897103 -1.7528240 1.00000 0.00000             
S     core 0.1907006 20.826359 -5.676389 -1.7528240 1.00000 0.00000             
Pb    core 0.1647428 20.981564 -2.812582 1.75282400 1.00000 0.00000             
Pb    core 3.0282701 17.909530 -2.882564 1.75282400 1.00000 0.00000             
Pb    core 3.0778432 20.825433 -5.711790 1.75282400 1.00000 0.00000             
Pb    core 0.1457283 17.916456 -5.895162 1.75282400 1.00000 0.00000             
S     core 0.2001156 17.667740 20.833966 -1.7528240 1.00000 0.00000             
S     core 3.0622645 17.891508 17.931151 -1.7528240 1.00000 0.00000             
S     core 0.1949564 20.791242 17.719408 -1.7528240 1.00000 0.00000             
Pb    core 3.0867109 17.703578 20.830613 1.75282400 1.00000 0.00000             
Pb    core 3.0815523 20.790532 17.752997 1.75282400 1.00000 0.00000             
Pb    core 0.1487277 17.882671 17.926952 1.75282400 1.00000 0.00000             
S     core 0.2545949 23.799033 3.1805596 -1.7528240 1.00000 0.00000             
S     core 3.1255651 23.808650 0.3092523 -1.7528240 1.00000 0.00000             
Pb    core 3.1172419 23.756511 3.1701529 1.75282400 1.00000 0.00000             
Pb    core 0.2950052 23.839471 0.3483783 1.75282400 1.00000 0.00000             
S     core 0.3322387 23.969099 14.558671 -1.7528240 1.00000 0.00000             
S     core 3.1278467 23.790304 11.744023 -1.7528240 1.00000 0.00000             
Pb    core 3.1497803 23.909788 14.589814 1.75282400 1.00000 0.00000             
Pb    core 0.2970127 23.822480 11.702842 1.75282400 1.00000 0.00000             
S     core -2.856391 8.9108607 -8.963634 -1.7528240 1.00000 0.00000             
S     core -5.738959 6.0027312 -8.819972 -1.7528240 1.00000 0.00000             
S     core -2.570817 6.0065230 -11.92737 -1.7528240 1.00000 0.00000             
Pb    core -5.731012 8.8952212 -8.812535 1.75282400 1.00000 0.00000             
Pb    core -2.857879 6.0000310 -8.960341 1.75282400 1.00000 0.00000             
Pb    core -2.562256 8.8270886 -11.92643 1.75282400 1.00000 0.00000             
S     core -2.572417 5.9614724 23.925667 -1.7528240 1.00000 0.00000             
Pb    core -2.565593 8.7839619 23.931574 1.75282400 1.00000 0.00000             
S     core -2.929593 3.0224295 -2.938650 -1.7528240 1.00000 0.00000             
S     core -5.927640 0.0702663 -2.907492 -1.7528240 1.00000 0.00000             
S     core -2.889565 0.0770474 -5.944390 -1.7528240 1.00000 0.00000             
S     core -5.907319 3.0791561 -5.919389 -1.7528240 1.00000 0.00000             
Pb    core -5.891954 3.0364333 -2.904947 1.75282400 1.00000 0.00000             
Pb    core -2.921947 0.0360327 -2.951231 1.75282400 1.00000 0.00000             
Pb    core -2.884156 3.0421913 -5.909772 1.75282400 1.00000 0.00000             
Pb    core -5.894178 0.1607317 -5.920631 1.75282400 1.00000 0.00000             
S     core -2.849063 3.0613155 20.962850 -1.7528240 1.00000 0.00000             
S     core -5.690225 0.1812105 20.809938 -1.7528240 1.00000 0.00000             
S     core -2.891455 0.0451568 17.928435 -1.7528240 1.00000 0.00000             
S     core -5.909843 3.0471687 17.909850 -1.7528240 1.00000 0.00000             
Pb    core -5.725837 3.0635210 20.808703 1.75282400 1.00000 0.00000             
Pb    core -2.823533 0.1526552 20.969676 1.75282400 1.00000 0.00000             
Pb    core -2.891496 3.0143365 17.896978 1.75282400 1.00000 0.00000             
Pb    core -5.900843 0.1308375 17.900872 1.75282400 1.00000 0.00000             
S     core -2.923192 -2.941200 3.0121172 -1.7528240 1.00000 0.00000             
S     core -5.901417 -5.923668 3.0663501 -1.7528240 1.00000 0.00000             
S     core -2.890945 -5.936186 0.0625536 -1.7528240 1.00000 0.00000             
S     core -5.926192 -2.903834 0.0619702 -1.7528240 1.00000 0.00000             
Pb    core -5.883670 -2.914701 3.0323244 1.75282400 1.00000 0.00000             
Pb    core -2.872761 -5.916881 3.0308622 1.75282400 1.00000 0.00000             
Pb    core -2.917364 -2.952311 0.0297129 1.75282400 1.00000 0.00000             
Pb    core -5.892370 -5.917195 0.1498119 1.75282400 1.00000 0.00000             
S     core -2.911360 -2.945763 14.911417 -1.7528240 1.00000 0.00000             
S     core -5.879614 -5.921940 14.715945 -1.7528240 1.00000 0.00000             
S     core -2.886763 -5.954404 11.915804 -1.7528240 1.00000 0.00000             
S     core -5.925620 -2.922651 11.917604 -1.7528240 1.00000 0.00000             
Pb    core -5.883733 -2.967744 14.921708 1.75282400 1.00000 0.00000             
Pb    core -2.917043 -5.929194 14.917123 1.75282400 1.00000 0.00000             
Pb    core -2.923662 -2.965472 11.940969 1.75282400 1.00000 0.00000             
Pb    core -5.893055 -5.937157 11.819158 1.75282400 1.00000 0.00000             
S     core -2.837498 -8.980424 8.8922769 -1.7528240 1.00000 0.00000             
S     core -2.563914 -11.93642 5.9915284 -1.7528240 1.00000 0.00000             
S     core -5.727899 -8.832691 5.9858594 -1.7528240 1.00000 0.00000             
Pb    core -5.708663 -8.837520 8.8783133 1.75282400 1.00000 0.00000             
Pb    core -2.539732 -11.94635 8.8071870 1.75282400 1.00000 0.00000             
Pb    core -2.841286 -8.972036 5.9832171 1.75282400 1.00000 0.00000             
S     core -2.935946 14.920982 -2.909837 -1.7528240 1.00000 0.00000             
S     core -5.944559 11.922732 -2.891159 -1.7528240 1.00000 0.00000             
S     core -2.908413 11.931479 -5.928282 -1.7528240 1.00000 0.00000             
S     core -5.907005 14.726840 -5.882522 -1.7528240 1.00000 0.00000             
Pb    core -5.911229 14.926824 -2.925177 1.75282400 1.00000 0.00000             
Pb    core -2.946271 11.950630 -2.934457 1.75282400 1.00000 0.00000             
Pb    core -2.947754 14.934481 -5.889704 1.75282400 1.00000 0.00000             
Pb    core -5.917123 11.830837 -5.904434 1.75282400 1.00000 0.00000             
S     core -2.772585 14.725821 21.239050 -1.7528240 1.00000 0.00000             
S     core -5.705719 11.746155 20.825357 -1.7528240 1.00000 0.00000             
S     core -2.907223 11.898099 17.944111 -1.7528240 1.00000 0.00000             
S     core -5.905986 14.693763 17.905906 -1.7528240 1.00000 0.00000             
Pb    core -5.675319 14.611872 20.775395 1.75282400 1.00000 0.00000             
Pb    core -2.840190 11.775416 20.986949 1.75282400 1.00000 0.00000             
Pb    core -2.947539 14.903648 17.911368 1.75282400 1.00000 0.00000             
Pb    core -5.917888 11.799771 17.917830 1.75282400 1.00000 0.00000             
S     core -2.876708 20.956926 3.1163547 -1.7528240 1.00000 0.00000             
S     core -5.931664 17.899465 3.0966326 -1.7528240 1.00000 0.00000             
S     core -2.917443 17.930693 0.0900088 -1.7528240 1.00000 0.00000             