# 
# Keywords:
# 
conp opti  
# 
# Options:
# 
cartesian 
S     core -10.44660 -8.562720 -7.445689 -1.7528240 1.00000 0.00000             
S     core 3.1943822 -9.187331 -14.57668 -1.7528240 1.00000 0.00000             
Pb    core 0.4412951 -9.480632 -14.34647 1.75282400 1.00000 0.00000             
Pb    core -2.495489 -14.96754 -6.952652 1.75282400 1.00000 0.00000             
S     core -2.956858 -3.641474 -14.57683 -1.7528240 1.00000 0.00000             
Pb    core -5.467641 -2.896086 -14.94993 1.75282400 1.00000 0.00000             
Pb    core -2.889989 -6.514253 -14.14835 1.75282400 1.00000 0.00000             
S     core -2.642330 -8.982991 -8.668718 -1.7528240 1.00000 0.00000             
S     core -5.778811 -11.00050 -8.675210 -1.7528240 1.00000 0.00000             
S     core -1.976704 -14.11225 -9.609089 -1.7528240 1.00000 0.00000             
S     core -4.933114 -8.073924 -13.17979 -1.7528240 1.00000 0.00000             
Pb    core -7.957036 -9.757964 -7.283570 1.75282400 1.00000 0.00000             
Pb    core -3.054918 -11.76446 -8.669449 1.75282400 1.00000 0.00000             
Pb    core -4.834645 -8.949563 -10.45919 1.75282400 1.00000 0.00000             
S     core -2.038894 -11.56638 24.128204 -1.7528240 1.00000 0.00000             
S     core -7.984884 -8.254330 22.087252 -1.7528240 1.00000 0.00000             
Pb    core -5.319524 -8.492321 21.348726 1.75282400 1.00000 0.00000             
S     core -2.581620 -14.89235 -2.291681 -1.7528240 1.00000 0.00000             
S     core -4.202550 -16.32796 -5.149572 -1.7528240 1.00000 0.00000             
Pb    core -5.285887 -15.16047 -2.825198 1.75282400 1.00000 0.00000             
Pb    core -1.928292 -17.19732 -3.848454 1.75282400 1.00000 0.00000             
S     core -5.265072 -15.02745 17.861460 -1.7528240 1.00000 0.00000             
Pb    core -2.609481 -14.81979 17.990547 1.75282400 1.00000 0.00000             
S     core -10.85076 14.011579 -12.82766 -1.7528240 1.00000 0.00000             
Pb    core -2.750993 17.314046 -14.90650 1.75282400 1.00000 0.00000             
S     core -5.503200 23.479607 -9.038253 -1.7528240 1.00000 0.00000             
S     core -1.285293 22.502221 -13.94385 -1.7528240 1.00000 0.00000             
Pb    core -2.812646 23.340155 -9.320231 1.75282400 1.00000 0.00000             
S     core -8.606242 2.8849024 -14.92144 -1.7528240 1.00000 0.00000             
Pb    core -8.724623 0.2447939 -15.27059 1.75282400 1.00000 0.00000             
S     core -9.002512 -2.876995 -8.942143 -1.7528240 1.00000 0.00000             
S     core -13.68512 -4.721342 -7.627078 -1.7528240 1.00000 0.00000             
S     core -8.830064 -5.784307 -11.43699 -1.7528240 1.00000 0.00000             
Pb    core -11.76925 -3.068211 -8.471090 1.75282400 1.00000 0.00000             
Pb    core -9.016803 -6.422631 -8.744089 1.75282400 1.00000 0.00000             
Pb    core -8.904285 -3.161747 -11.77023 1.75282400 1.00000 0.00000             
S     core -9.836723 -5.169916 23.448164 -1.7528240 1.00000 0.00000             
S     core -11.87045 -1.912147 24.284301 -1.7528240 1.00000 0.00000             
Pb    core -9.076312 -2.501331 23.793853 1.75282400 1.00000 0.00000             
S     core -8.765279 -9.001607 -2.385890 -1.7528240 1.00000 0.00000             
S     core -11.60675 -11.67997 -2.451347 -1.7528240 1.00000 0.00000             
S     core -8.828858 -11.79464 -5.551021 -1.7528240 1.00000 0.00000             
S     core -13.32348 -8.366837 -4.422079 -1.7528240 1.00000 0.00000             
Pb    core -11.66022 -8.866122 -2.288789 1.75282400 1.00000 0.00000             
Pb    core -8.846763 -11.84620 -2.760889 1.75282400 1.00000 0.00000             
Pb    core -11.49738 -10.51218 -5.501104 1.75282400 1.00000 0.00000             
S     core -8.808709 -11.92440 17.888214 -1.7528240 1.00000 0.00000             
S     core -8.783647 -14.76676 14.806948 -1.7528240 1.00000 0.00000             
S     core -11.58005 -11.91133 14.769611 -1.7528240 1.00000 0.00000             
Pb    core -10.52226 -13.72917 16.737003 1.75282400 1.00000 0.00000             
S     core -8.020730 -16.08644 3.7869384 -1.7528240 1.00000 0.00000             
Pb    core -8.519080 -15.33231 1.0809638 1.75282400 1.00000 0.00000             
Pb    core -8.522938 -14.98177 12.128949 1.75282400 1.00000 0.00000             
Pb    core -8.065195 13.665369 -13.50345 1.75282400 1.00000 0.00000             
S     core -9.184580 20.774109 -8.506421 -1.7528240 1.00000 0.00000             
S     core -11.50369 17.594776 -9.396999 -1.7528240 1.00000 0.00000             
S     core -8.053520 19.065866 -11.35567 -1.7528240 1.00000 0.00000             
Pb    core -10.56763 19.908226 -10.69846 1.75282400 1.00000 0.00000             
S     core -10.90261 17.294611 22.103709 -1.7528240 1.00000 0.00000             
S     core -11.42763 23.494634 -3.308973 -1.7528240 1.00000 0.00000             
Pb    core -8.707285 23.664393 -3.021498 1.75282400 1.00000 0.00000             
S     core -8.571917 23.768935 17.697000 -1.7528240 1.00000 0.00000             
S     core -14.86875 2.9474356 -8.636758 -1.7528240 1.00000 0.00000             
Pb    core -14.95278 0.2356646 -8.615325 1.75282400 1.00000 0.00000             
S     core -14.56271 -3.360368 -2.927778 -1.7528240 1.00000 0.00000             
Pb    core -14.46024 -6.247526 -2.708649 1.75282400 1.00000 0.00000             
Pb    core -14.55497 -3.082491 -5.634127 1.75282400 1.00000 0.00000             
Pb    core -14.44102 -2.726691 18.105361 1.75282400 1.00000 0.00000             
S     core -14.99518 -8.721221 3.4370503 -1.7528240 1.00000 0.00000             
Pb    core -16.74911 -7.646589 1.4990611 1.75282400 1.00000 0.00000             
Pb    core -15.03671 -8.433051 11.552459 1.75282400 1.00000 0.00000             
Pb    core -14.74343 11.301281 -8.779858 1.75282400 1.00000 0.00000             
Pb    core -14.46638 17.467945 -3.193567 1.75282400 1.00000 0.00000             
S     core -16.15593 19.777110 13.628925 -1.7528240 1.00000 0.00000             
Pb    core 10.532411 -8.138672 -16.55763 1.75282400 1.00000 0.00000             
Pb    core 11.531208 -15.48652 -8.247709 1.75282400 1.00000 0.00000             
Pb    core 17.557184 -2.760374 -14.73024 1.75282400 1.00000 0.00000             
S     core 20.571947 -12.04977 -5.228743 -1.7528240 1.00000 0.00000             
S     core 16.594149 -11.02170 -10.44006 -1.7528240 1.00000 0.00000             
Pb    core 17.715523 -9.147381 -8.683504 1.75282400 1.00000 0.00000             
Pb    core 17.649571 -15.01724 -2.265088 1.75282400 1.00000 0.00000             
S     core 17.302503 -14.75139 17.999714 -1.7528240 1.00000 0.00000             
S     core 17.397864 16.379380 -15.65137 -1.7528240 1.00000 0.00000             
S     core 17.810386 23.575818 -8.754361 -1.7528240 1.00000 0.00000             
S     core 22.785132 -7.973750 -7.384628 -1.7528240 1.00000 0.00000             
S     core 24.007904 -2.644207 -11.43420 -1.7528240 1.00000 0.00000             
Pb    core 23.985712 -2.880879 -8.679811 1.75282400 1.00000 0.00000             
S     core 24.309384 -11.57639 -1.969203 -1.7528240 1.00000 0.00000             
Pb    core 25.189387 -8.890645 -2.290433 1.75282400 1.00000 0.00000             
S     core 23.847264 -8.323009 18.748522 -1.7528240 1.00000 0.00000             
S     core 8.7346009 -9.087005 -14.69263 -1.7528240 1.00000 0.00000             
Pb    core 5.9504999 -9.121259 -14.48874 1.75282400 1.00000 0.00000             
S     core 8.8724961 -15.15219 -8.315819 -1.7528240 1.00000 0.00000             
Pb    core 6.1670705 -15.22285 -8.549303 1.75282400 1.00000 0.00000             
S     core 3.0277895 -3.477830 -14.76362 -1.7528240 1.00000 0.00000             
S     core -0.053244 -6.761948 -14.37886 -1.7528240 1.00000 0.00000             
S     core 0.4467256 -3.080287 -17.71716 -1.7528240 1.00000 0.00000             
Pb    core -0.103403 -3.370671 -14.99789 1.75282400 1.00000 0.00000             
Pb    core 2.7927442 -6.288258 -14.41692 1.75282400 1.00000 0.00000             
Pb    core 3.0681704 -2.858142 -17.66957 1.75282400 1.00000 0.00000             
S     core 3.6797392 -8.044026 27.976860 -1.7528240 1.00000 0.00000             
S     core 1.1056751 -4.177541 29.422422 -1.7528240 1.00000 0.00000             
Pb    core 3.2236543 -2.431191 29.699457 1.75282400 1.00000 0.00000             
S     core 3.2272985 -9.122065 -8.600046 -1.7528240 1.00000 0.00000             
S     core 0.3806780 -11.88208 -8.199416 -1.7528240 1.00000 0.00000             
S     core 3.2575616 -12.55212 -11.10868 -1.7528240 1.00000 0.00000             
S     core 0.2866549 -9.939141 -11.65849 -1.7528240 1.00000 0.00000             
Pb    core 0.1256483 -9.117129 -8.659844 1.75282400 1.00000 0.00000             
Pb    core 3.0946702 -11.94111 -8.368139 1.75282400 1.00000 0.00000             
Pb    core 3.0418355 -9.414300 -11.53234 1.75282400 1.00000 0.00000             
Pb    core 0.1953695 -12.79280 -10.79291 1.75282400 1.00000 0.00000             
S     core 3.1981856 -13.28727 23.132396 -1.7528240 1.00000 0.00000             
S     core 1.2153174 -9.538942 23.518520 -1.7528240 1.00000 0.00000             
Pb    core -1.658795 -8.822370 24.276156 1.75282400 1.00000 0.00000             
Pb    core 2.9060092 -7.911996 25.120387 1.75282400 1.00000 0.00000             
Pb    core 0.5621354 -12.18496 23.943474 1.75282400 1.00000 0.00000             
S     core 3.1823315 -15.08540 -2.561585 -1.7528240 1.00000 0.00000             
S     core 0.4045144 -17.89996 -2.446686 -1.7528240 1.00000 0.00000             
S     core -0.092673 -15.20943 -5.309316 -1.7528240 1.00000 0.00000             
Pb    core 0.1978999 -14.92943 -2.384977 1.75282400 1.00000 0.00000             
Pb    core 3.0807006 -17.97206 -2.146677 1.75282400 1.00000 0.00000             
Pb    core 2.6259675 -15.09557 -5.399430 1.75282400 1.00000 0.00000             
S     core 3.8898384 -16.11691 20.260750 -1.7528240 1.00000 0.00000             
S     core 0.3100323 -14.99373 18.090105 -1.7528240 1.00000 0.00000             
Pb    core 1.5314406 -14.93206 21.103659 1.75282400 1.00000 0.00000             
Pb    core 3.1500254 -14.57210 17.944552 1.75282400 1.00000 0.00000             
S     core 3.1978747 20.212431 -15.12544 -1.7528240 1.00000 0.00000             
S     core 0.0843796 17.606995 -14.99507 -1.7528240 1.00000 0.00000             
Pb    core 0.4133309 20.560628 -14.97577 1.75282400 1.00000 0.00000             
Pb    core 2.9439264 17.428001 -14.82199 1.75282400 1.00000 0.00000             
S     core 3.3289794 18.151135 29.503317 -1.7528240 1.00000 0.00000             
S     core 3.4147021 26.707276 -8.974785 -1.7528240 1.00000 0.00000             
S     core -0.007960 23.507570 -9.372150 -1.7528240 1.00000 0.00000             
S     core 3.3449512 23.365267 -12.04950 -1.7528240 1.00000 0.00000             
Pb    core 1.5908933 28.522336 -8.094927 1.75282400 1.00000 0.00000             
Pb    core 3.0895186 23.790180 -9.194438 1.75282400 1.00000 0.00000             
Pb    core 0.5878756 23.366018 -12.19461 1.75282400 1.00000 0.00000             
S     core 3.2733642 24.065701 23.485711 -1.7528240 1.00000 0.00000             
Pb    core 0.5564268 23.799978 23.646790 1.75282400 1.00000 0.00000             
S     core 0.0944652 29.687335 -3.001070 -1.7528240 1.00000 0.00000             
S     core 3.1868252 29.515580 -6.152471 -1.7528240 1.00000 0.00000             
Pb    core 2.9576196 29.682692 -3.224051 1.75282400 1.00000 0.00000             
S     core -2.843941 2.7785563 -14.83516 -1.7528240 1.00000 0.00000             
S     core -6.047644 -0.240472 -14.78610 -1.7528240 1.00000 0.00000             
S     core -2.754862 0.3760272 -17.71072 -1.7528240 1.00000 0.00000             
Pb    core -5.665791 2.6635333 -14.74073 1.75282400 1.00000 0.00000             
Pb    core -2.758216 -0.159830 -15.01318 1.75282400 1.00000 0.00000             
Pb    core -2.386917 3.0696876 -17.85452 1.75282400 1.00000 0.00000             
S     core -2.350919 0.3421164 29.835642 -1.7528240 1.00000 0.00000             
S     core -5.670918 3.4406859 29.844908 -1.7528240 1.00000 0.00000             
Pb    core -2.895499 3.0350436 29.946163 1.75282400 1.00000 0.00000             
S     core -2.989686 -3.113994 -8.768588 -1.7528240 1.00000 0.00000             
S     core -5.982157 -6.268117 -8.881210 -1.7528240 1.00000 0.00000             
S     core -2.991995 -5.941678 -11.39868 -1.7528240 1.00000 0.00000             
S     core -6.042479 -3.088061 -12.14897 -1.7528240 1.00000 0.00000             
Pb    core -5.987348 -3.275357 -8.772088 1.75282400 1.00000 0.00000             
Pb    core -2.964406 -6.133082 -8.599167 1.75282400 1.00000 0.00000             
Pb    core -2.842554 -3.157820 -11.70353 1.75282400 1.00000 0.00000             
Pb    core -6.084842 -6.008891 -11.76387 1.75282400 1.00000 0.00000             
S     core -2.826572 -3.013139 26.679348 -1.7528240 1.00000 0.00000             
S     core -5.978314 -5.724779 26.516810 -1.7528240 1.00000 0.00000             
S     core -2.625131 -6.103212 23.797321 -1.7528240 1.00000 0.00000             
S     core -6.110424 -2.562863 23.925901 -1.7528240 1.00000 0.00000             
Pb    core -5.673690 -2.925278 26.717935 1.75282400 1.00000 0.00000             
Pb    core -3.179437 -5.835570 26.529563 1.75282400 1.00000 0.00000             
Pb    core -3.061761 -2.750475 23.850640 1.75282400 1.00000 0.00000             
Pb    core -7.716550 -6.640688 24.510843 1.75282400 1.00000 0.00000             
S     core -2.875566 -9.134194 -2.710124 -1.7528240 1.00000 0.00000             
S     core -5.914481 -12.31497 -2.771354 -1.7528240 1.00000 0.00000             
S     core -3.006218 -12.16550 -5.776402 -1.7528240 1.00000 0.00000             
S     core -5.790727 -9.054746 -5.522296 -1.7528240 1.00000 0.00000             
Pb    core -5.920567 -9.020221 -2.740552 1.75282400 1.00000 0.00000             
Pb    core -2.900427 -12.08626 -2.740707 1.75282400 1.00000 0.00000             
Pb    core -2.964504 -9.073627 -5.767936 1.75282400 1.00000 0.00000             
Pb    core -5.948609 -11.94788 -5.816270 1.75282400 1.00000 0.00000             
S     core -2.488590 -8.783719 21.151669 -1.7528240 1.00000 0.00000             
S     core -5.577898 -11.26407 20.831120 -1.7528240 1.00000 0.00000             
S     core -2.726028 -11.95429 18.092515 -1.7528240 1.00000 0.00000             
S     core -5.806499 -8.863413 18.194345 -1.7528240 1.00000 0.00000             
Pb    core -8.026680 -10.04763 19.903374 1.75282400 1.00000 0.00000             
Pb    core -2.897038 -11.66835 21.468422 1.75282400 1.00000 0.00000             
Pb    core -2.934165 -8.877960 18.204615 1.75282400 1.00000 0.00000             
Pb    core -5.829813 -12.25885 18.253216 1.75282400 1.00000 0.00000             
S     core -2.815153 -14.98838 3.4083189 -1.7528240 1.00000 0.00000             
S     core -2.630876 -17.98444 0.8137555 -1.7528240 1.00000 0.00000             
S     core -5.883567 -15.00100 0.3058757 -1.7528240 1.00000 0.00000             
Pb    core -5.588843 -14.72242 3.1993425 1.75282400 1.00000 0.00000             
Pb    core -2.629279 -17.98141 3.4649084 1.75282400 1.00000 0.00000             
Pb    core -2.872005 -15.18518 0.4252978 1.75282400 1.00000 0.00000             
S     core -2.698981 -14.86417 15.007899 -1.7528240 1.00000 0.00000             
S     core -5.742124 -14.89551 11.992624 -1.7528240 1.00000 0.00000             
Pb    core -5.893948 -14.86861 15.237086 1.75282400 1.00000 0.00000             
Pb    core -2.944344 -14.64314 12.245598 1.75282400 1.00000 0.00000             
S     core -2.651462 14.555719 -15.36777 -1.7528240 1.00000 0.00000             
S     core -5.959861 11.784908 -14.63211 -1.7528240 1.00000 0.00000             
S     core -2.555835 11.146957 -18.02811 -1.7528240 1.00000 0.00000             
Pb    core -2.464791 13.876094 -18.07080 1.75282400 1.00000 0.00000             
Pb    core -3.046330 11.649609 -15.04976 1.75282400 1.00000 0.00000             
S     core -2.984282 11.930240 29.591800 -1.7528240 1.00000 0.00000             
S     core -2.830734 20.572530 -9.409066 -1.7528240 1.00000 0.00000             
S     core -5.743528 17.701366 -8.992332 -1.7528240 1.00000 0.00000             
S     core -2.688000 17.392046 -12.00980 -1.7528240 1.00000 0.00000             
S     core -4.511941 19.174030 -14.17491 -1.7528240 1.00000 0.00000             
Pb    core -6.427691 20.761801 -9.521226 1.75282400 1.00000 0.00000             
Pb    core -2.857123 17.643842 -9.152382 1.75282400 1.00000 0.00000             
Pb    core -2.676201 20.462097 -12.51721 1.75282400 1.00000 0.00000             
Pb    core -5.789874 17.669798 -12.18297 1.75282400 1.00000 0.00000             
S     core -3.053886 18.249972 23.589305 -1.7528240 1.00000 0.00000             
S     core -5.778221 22.774522 21.848305 -1.7528240 1.00000 0.00000             
Pb    core -2.526753 18.079117 26.274872 1.75282400 1.00000 0.00000             
Pb    core -4.790795 20.243560 22.203433 1.75282400 1.00000 0.00000             
Pb    core -8.670111 18.155630 20.560275 1.75282400 1.00000 0.00000             
S     core -2.818140 26.957601 -3.466622 -1.7528240 1.00000 0.00000             
S     core -6.006596 23.576365 -3.533370 -1.7528240 1.00000 0.00000             
S     core -2.843679 23.780703 -6.338218 -1.7528240 1.00000 0.00000             
Pb    core -2.589253 29.686554 -2.802258 1.75282400 1.00000 0.00000             
Pb    core -2.952618 23.795889 -3.242345 1.75282400 1.00000 0.00000             
Pb    core -2.470596 26.480939 -6.101172 1.75282400 1.00000 0.00000             
Pb    core -5.665726 23.391426 -6.358934 1.75282400 1.00000 0.00000             
S     core -4.519148 26.042378 19.215235 -1.7528240 1.00000 0.00000             
S     core -2.757609 23.804860 17.462627 -1.7528240 1.00000 0.00000             
Pb    core -3.454451 23.761018 20.486926 1.75282400 1.00000 0.00000             
Pb    core -2.766999 26.700941 17.278188 1.75282400 1.00000 0.00000             
Pb    core -5.717130 24.007517 17.554130 1.75282400 1.00000 0.00000             
S     core -5.902361 29.573719 2.9660503 -1.7528240 1.00000 0.00000             
S     core -2.699508 29.727795 -0.147037 -1.7528240 1.00000 0.00000             
Pb    core -2.849777 29.711208 2.6556375 1.75282400 1.00000 0.00000             
S     core -2.616234 29.641212 11.395827 -1.7528240 1.00000 0.00000             
S     core -7.911233 7.6982882 -16.45117 -1.7528240 1.00000 0.00000             
Pb    core -8.670622 5.6687300 -14.85740 1.75282400 1.00000 0.00000             
S     core -8.956484 2.6952637 -9.050416 -1.7528240 1.00000 0.00000             
S     core -12.25977 -0.299891 -9.397705 -1.7528240 1.00000 0.00000             
S     core -9.795567 -0.809520 -12.98290 -1.7528240 1.00000 0.00000             
S     core -11.73945 3.0705780 -11.84004 -1.7528240 1.00000 0.00000             
Pb    core -11.91442 2.9060785 -8.895767 1.75282400 1.00000 0.00000             
Pb    core -8.882548 -0.094877 -8.651148 1.75282400 1.00000 0.00000             
Pb    core -8.844950 2.9846754 -11.98367 1.75282400 1.00000 0.00000             
Pb    core -12.03799 0.4159167 -12.07450 1.75282400 1.00000 0.00000             
S     core -8.722633 3.4316122 26.777356 -1.7528240 1.00000 0.00000             
S     core -8.937501 0.4177323 24.071778 -1.7528240 1.00000 0.00000             
S     core -11.76570 3.4986169 23.757690 -1.7528240 1.00000 0.00000             
Pb    core -8.713561 0.7306393 26.933427 1.75282400 1.00000 0.00000             
Pb    core -8.876055 3.3212059 23.857349 1.75282400 1.00000 0.00000             
Pb    core -11.82479 0.7196447 23.787790 1.75282400 1.00000 0.00000             
S     core -8.734330 -2.992042 -2.790719 -1.7528240 1.00000 0.00000             
S     core -11.62613 -5.987711 -2.629902 -1.7528240 1.00000 0.00000             
S     core -8.848476 -5.785529 -5.935885 -1.7528240 1.00000 0.00000             
S     core -11.63407 -2.786874 -5.689980 -1.7528240 1.00000 0.00000             
Pb    core -11.69188 -3.080166 -2.717793 1.75282400 1.00000 0.00000             
Pb    core -8.798948 -6.070597 -2.926180 1.75282400 1.00000 0.00000             
Pb    core -8.798023 -3.024856 -5.693180 1.75282400 1.00000 0.00000             
Pb    core -11.88304 -6.475339 -5.991737 1.75282400 1.00000 0.00000             
S     core -8.849506 -2.710570 20.918222 -1.7528240 1.00000 0.00000             
S     core -13.57146 -4.628966 20.019186 -1.7528240 1.00000 0.00000             
S     core -8.949811 -5.738025 18.156401 -1.7528240 1.00000 0.00000             
S     core -11.68823 -2.660317 17.630908 -1.7528240 1.00000 0.00000             
Pb    core -12.14579 -3.885928 22.348456 1.75282400 1.00000 0.00000             
Pb    core -8.566454 -5.671692 21.008715 1.75282400 1.00000 0.00000             
Pb    core -8.884298 -2.727198 18.024818 1.75282400 1.00000 0.00000             
Pb    core -11.76566 -5.425527 18.042049 1.75282400 1.00000 0.00000             
S     core -8.702604 -8.855345 3.2645868 -1.7528240 1.00000 0.00000             
S     core -11.58307 -12.02627 3.3544100 -1.7528240 1.00000 0.00000             
S     core -8.867112 -12.61652 0.4776675 -1.7528240 1.00000 0.00000             
S     core -11.51433 -9.002997 0.4912236 -1.7528240 1.00000 0.00000             
Pb    core -12.14644 -8.902619 3.2116223 1.75282400 1.00000 0.00000             
Pb    core -8.829633 -11.63088 3.2196116 1.75282400 1.00000 0.00000             
Pb    core -8.720894 -8.729143 0.3889273 1.75282400 1.00000 0.00000             
Pb    core -11.73077 -11.80564 0.3877491 1.75282400 1.00000 0.00000             
S     core -8.777404 -8.914598 14.702694 -1.7528240 1.00000 0.00000             
S     core -8.747168 -12.13892 11.821081 -1.7528240 1.00000 0.00000             
S     core -12.04851 -9.034074 12.050622 -1.7528240 1.00000 0.00000             
Pb    core -11.57590 -9.003779 14.955326 1.75282400 1.00000 0.00000             
Pb    core -8.620232 -11.71105 15.000367 1.75282400 1.00000 0.00000             
Pb    core -8.834053 -8.710959 11.959921 1.75282400 1.00000 0.00000             
Pb    core -11.64077 -11.82421 11.916186 1.75282400 1.00000 0.00000             
S     core -7.869666 -16.32648 8.3125048 -1.7528240 1.00000 0.00000             
Pb    core -8.752220 -14.75658 6.1850728 1.75282400 1.00000 0.00000             
S     core -8.693924 14.700030 -8.880954 -1.7528240 1.00000 0.00000             
S     core -12.03986 11.804606 -9.354812 -1.7528240 1.00000 0.00000             
S     core -8.585291 11.377908 -11.79449 -1.7528240 1.00000 0.00000             
Pb    core -11.16833 14.917433 -10.20990 1.75282400 1.00000 0.00000             
Pb    core -8.780174 11.845813 -8.978405 1.75282400 1.00000 0.00000             
Pb    core -8.610689 17.614749 -8.972907 1.75282400 1.00000 0.00000             
Pb    core -11.37189 11.421577 -12.23102 1.75282400 1.00000 0.00000             
S     core -10.30406 13.075674 24.755496 -1.7528240 1.00000 0.00000             
Pb    core -9.205140 11.661521 26.809773 1.75282400 1.00000 0.00000             
Pb    core -9.265384 15.366978 23.381984 1.75282400 1.00000 0.00000             
Pb    core -12.37867 11.750846 23.471966 1.75282400 1.00000 0.00000             
S     core -8.878150 20.748150 -3.169062 -1.7528240 1.00000 0.00000             
S     core -11.64643 17.774239 -2.882513 -1.7528240 1.00000 0.00000             
S     core -8.836495 17.685396 -6.010972 -1.7528240 1.00000 0.00000             
S     core -13.71283 19.303084 -5.057251 -1.7528240 1.00000 0.00000             
Pb    core -11.89564 20.692766 -3.474595 1.75282400 1.00000 0.00000             
Pb    core -8.813622 17.655088 -3.101498 1.75282400 1.00000 0.00000             
Pb    core -8.663614 20.445496 -5.956960 1.75282400 1.00000 0.00000             
Pb    core -11.96092 17.576672 -6.559878 1.75282400 1.00000 0.00000             
S     core -9.821150 20.702373 20.319656 -1.7528240 1.00000 0.00000             
S     core -13.66024 17.011932 19.317024 -1.7528240 1.00000 0.00000             
S     core -8.947643 17.942100 17.653104 -1.7528240 1.00000 0.00000             
S     core -12.37369 20.334884 17.300792 -1.7528240 1.00000 0.00000             
Pb    core -12.36191 19.435750 20.296956 1.75282400 1.00000 0.00000             
Pb    core -9.527682 20.977773 17.439596 1.75282400 1.00000 0.00000             
Pb    core -11.82699 17.661834 17.232825 1.75282400 1.00000 0.00000             
S     core -8.883139 26.800414 2.9580021 -1.7528240 1.00000 0.00000             
S     core -8.968187 23.654045 -0.164171 -1.7528240 1.00000 0.00000             
Pb    core -8.574162 23.967962 2.6791469 1.75282400 1.00000 0.00000             
Pb    core -7.635841 28.555987 1.1170070 1.75282400 1.00000 0.00000             
Pb    core -11.64353 23.860363 -0.700532 1.75282400 1.00000 0.00000             
S     core -9.258026 24.515488 12.131981 -1.7528240 1.00000 0.00000             
Pb    core -8.538154 23.798605 14.923093 1.75282400 1.00000 0.00000             
Pb    core -8.533617 27.091930 11.146288 1.75282400 1.00000 0.00000             
Pb    core -11.88813 23.602840 11.742478 1.75282400 1.00000 0.00000             
S     core -14.68969 8.5583222 -8.824392 -1.7528240 1.00000 0.00000             
Pb    core -14.74946 5.8117229 -8.660861 1.75282400 1.00000 0.00000             
S     core -14.81190 2.9656216 -2.911628 -1.7528240 1.00000 0.00000             
S     core -14.61674 -0.202225 -5.978215 -1.7528240 1.00000 0.00000             
Pb    core -17.73782 3.0197047 -2.411589 1.75282400 1.00000 0.00000             
Pb    core -15.08819 -0.337361 -2.814586 1.75282400 1.00000 0.00000             
Pb    core -14.68514 2.7476092 -5.690216 1.75282400 1.00000 0.00000             
S     core -14.77125 3.6093878 20.767813 -1.7528240 1.00000 0.00000             
S     core -14.73091 0.0927196 18.106964 -1.7528240 1.00000 0.00000             
S     core -17.79626 3.4598667 17.653451 -1.7528240 1.00000 0.00000             
Pb    core -14.88949 0.9195134 20.705944 1.75282400 1.00000 0.00000             
Pb    core -15.02460 3.1721959 17.816212 1.75282400 1.00000 0.00000             
S     core -14.71491 -2.932688 3.1200587 -1.7528240 1.00000 0.00000             
S     core -17.63906 -5.895133 3.3682516 -1.7528240 1.00000 0.00000             
S     core -14.73223 -6.230834 0.1398005 -1.7528240 1.00000 0.00000             
S     core -17.72428 -2.811843 0.3738342 -1.7528240 1.00000 0.00000             
Pb    core -17.81474 -2.920485 3.0873465 1.75282400 1.00000 0.00000             
Pb    core -14.71402 -5.744205 3.2434134 1.75282400 1.00000 0.00000             
Pb    core -15.01441 -3.149093 0.0488087 1.75282400 1.00000 0.00000             
S     core -15.01707 -2.753768 15.256541 -1.7528240 1.00000 0.00000             
S     core -14.62071 -5.838407 11.892468 -1.7528240 1.00000 0.00000             
S     core -17.81396 -2.568133 11.916090 -1.7528240 1.00000 0.00000             
Pb    core -17.74549 -2.487499 14.619020 1.75282400 1.00000 0.00000             
Pb    core -14.94425 -2.983416 12.077588 1.75282400 1.00000 0.00000             
S     core -14.69375 -8.953515 8.9177352 -1.7528240 1.00000 0.00000             
Pb    core -14.93683 -8.566644 6.2155217 1.75282400 1.00000 0.00000             
S     core -14.83789 14.720460 -3.119893 -1.7528240 1.00000 0.00000             
S     core -17.53225 11.728386 -2.783162 -1.7528240 1.00000 0.00000             
S     core -14.89554 11.827358 -6.080495 -1.7528240 1.00000 0.00000             
Pb    core -14.65023 11.710238 -2.888406 1.75282400 1.00000 0.00000             
Pb    core -16.77773 13.435846 -4.722660 1.75282400 1.00000 0.00000             
S     core -14.81117 12.159952 17.829084 -1.7528240 1.00000 0.00000             
Pb    core -16.83287 10.887167 19.271091 1.75282400 1.00000 0.00000             
Pb    core -14.61671 14.992064 17.572829 1.75282400 1.00000 0.00000             
S     core -14.87756 20.599989 2.8935521 -1.7528240 1.00000 0.00000             
S     core -14.67996 17.898135 -0.258903 -1.7528240 1.00000 0.00000             
Pb    core -14.70892 17.633334 2.6819418 1.75282400 1.00000 0.00000             
Pb    core -14.99432 20.559417 0.1627381 1.75282400 1.00000 0.00000             
S     core -14.58202 17.586278 11.413084 -1.7528240 1.00000 0.00000             
Pb    core -16.50685 16.959422 13.549243 1.75282400 1.00000 0.00000             
Pb    core -16.38804 19.719742 10.846798 1.75282400 1.00000 0.00000             
S     core 14.924441 -3.392417 -14.69596 -1.7528240 1.00000 0.00000             
S     core 11.918118 -6.284320 -14.99033 -1.7528240 1.00000 0.00000             
S     core 11.648617 -3.294891 -17.52376 -1.7528240 1.00000 0.00000             
Pb    core 11.715834 -3.164363 -14.62358 1.75282400 1.00000 0.00000             
Pb    core 13.711727 -4.749831 -16.74200 1.75282400 1.00000 0.00000             
S     core 11.129106 -2.641570 29.690292 -1.7528240 1.00000 0.00000             
S     core 14.740611 -9.089287 -8.507903 -1.7528240 1.00000 0.00000             
S     core 12.223003 -12.88519 -9.041426 -1.7528240 1.00000 0.00000             
S     core 12.058229 -9.511050 -11.53045 -1.7528240 1.00000 0.00000             
Pb    core 11.887393 -9.004080 -8.624012 1.75282400 1.00000 0.00000             
Pb    core 14.863027 -11.95821 -8.545408 1.75282400 1.00000 0.00000             
Pb    core 14.844063 -9.153384 -11.44350 1.75282400 1.00000 0.00000             
Pb    core 11.398613 -12.17433 -11.66191 1.75282400 1.00000 0.00000             
S     core 11.524498 -8.852651 24.366434 -1.7528240 1.00000 0.00000             
Pb    core 10.458481 -8.395719 27.388221 1.75282400 1.00000 0.00000             
Pb    core 14.423262 -8.642144 23.988680 1.75282400 1.00000 0.00000             