# 
# Keywords:
# 
conp opti  
# 
# Options:
# 
cartesian 
S     core -10.66832 -10.66832 -10.66832 -1.7528240 1.00000 0.00000             
Pb    core -13.26020 -9.757500 -9.757500 1.75282400 1.00000 0.00000             
Pb    core -9.757500 -13.26020 -9.757500 1.75282400 1.00000 0.00000             
Pb    core -9.757500 -9.757500 -13.26020 1.75282400 1.00000 0.00000             
S     core -9.765291 -9.765291 25.276585 -1.7528240 1.00000 0.00000             
S     core -9.765291 -13.26908 21.772793 -1.7528240 1.00000 0.00000             
S     core -13.26908 -9.765291 21.772793 -1.7528240 1.00000 0.00000             
Pb    core -10.67673 -10.67673 22.684240 1.75282400 1.00000 0.00000             
S     core -9.765291 25.276585 -9.765291 -1.7528240 1.00000 0.00000             
S     core -13.26908 21.772793 -9.765291 -1.7528240 1.00000 0.00000             
S     core -9.765291 21.772793 -13.26908 -1.7528240 1.00000 0.00000             
Pb    core -10.67673 22.684240 -10.67673 1.75282400 1.00000 0.00000             
S     core -10.66832 22.675822 22.675822 -1.7528240 1.00000 0.00000             
Pb    core -9.757500 21.765002 25.267707 1.75282400 1.00000 0.00000             
Pb    core -9.757500 25.267707 21.765002 1.75282400 1.00000 0.00000             
Pb    core -13.26020 21.765002 21.765002 1.75282400 1.00000 0.00000             
S     core 25.276585 -9.765291 -9.765291 -1.7528240 1.00000 0.00000             
S     core 21.772793 -13.26908 -9.765291 -1.7528240 1.00000 0.00000             
S     core 21.772793 -9.765291 -13.26908 -1.7528240 1.00000 0.00000             
Pb    core 22.684240 -10.67673 -10.67673 1.75282400 1.00000 0.00000             
S     core 22.675822 -10.66832 22.675822 -1.7528240 1.00000 0.00000             
Pb    core 21.765002 -9.757500 25.267707 1.75282400 1.00000 0.00000             
Pb    core 25.267707 -9.757500 21.765002 1.75282400 1.00000 0.00000             
Pb    core 21.765002 -13.26020 21.765002 1.75282400 1.00000 0.00000             
S     core 22.675822 22.675822 -10.66832 -1.7528240 1.00000 0.00000             
Pb    core 21.765002 25.267707 -9.757500 1.75282400 1.00000 0.00000             
Pb    core 25.267707 21.765002 -9.757500 1.75282400 1.00000 0.00000             
Pb    core 21.765002 21.765002 -13.26020 1.75282400 1.00000 0.00000             
S     core 21.772793 21.772793 25.276585 -1.7528240 1.00000 0.00000             
S     core 25.276585 21.772793 21.772793 -1.7528240 1.00000 0.00000             
S     core 21.772793 25.276585 21.772793 -1.7528240 1.00000 0.00000             
Pb    core 22.684240 22.684240 22.684240 1.75282400 1.00000 0.00000             
S     core -4.015791 -4.015791 -16.29579 -1.7528240 1.00000 0.00000             
S     core -6.712287 -6.712287 -16.46964 -1.7528240 1.00000 0.00000             
Pb    core -6.874206 -3.978804 -16.43976 1.75282400 1.00000 0.00000             
Pb    core -3.978804 -6.874206 -16.43976 1.75282400 1.00000 0.00000             
S     core -3.976702 -6.878678 28.452285 -1.7528240 1.00000 0.00000             
S     core -6.878678 -3.976702 28.452285 -1.7528240 1.00000 0.00000             
Pb    core -4.017134 -4.017134 28.301558 1.75282400 1.00000 0.00000             
Pb    core -6.707050 -6.707050 28.468039 1.75282400 1.00000 0.00000             
S     core -4.230373 -10.34318 -10.34318 -1.7528240 1.00000 0.00000             
S     core -7.041435 -13.19443 -10.06053 -1.7528240 1.00000 0.00000             
S     core -7.041435 -10.06053 -13.19443 -1.7528240 1.00000 0.00000             
Pb    core -7.120637 -10.31517 -10.31517 1.75282400 1.00000 0.00000             
Pb    core -4.172945 -13.24924 -10.09374 1.75282400 1.00000 0.00000             
Pb    core -4.172945 -10.09374 -13.24924 1.75282400 1.00000 0.00000             
S     core -4.175895 -10.09858 25.261909 -1.7528240 1.00000 0.00000             
S     core -4.175895 -13.25440 22.106084 -1.7528240 1.00000 0.00000             
S     core -7.122740 -10.31252 22.320027 -1.7528240 1.00000 0.00000             
Pb    core -7.044854 -10.05522 25.195502 1.75282400 1.00000 0.00000             
Pb    core -4.231896 -10.34551 22.353018 1.75282400 1.00000 0.00000             
Pb    core -7.044854 -13.18799 22.062723 1.75282400 1.00000 0.00000             
S     core -4.015791 -16.29579 -4.015791 -1.7528240 1.00000 0.00000             
S     core -6.712287 -16.46964 -6.712287 -1.7528240 1.00000 0.00000             
Pb    core -6.874206 -16.43976 -3.978804 1.75282400 1.00000 0.00000             
Pb    core -3.978804 -16.43976 -6.874206 1.75282400 1.00000 0.00000             
S     core -3.976702 -16.44478 18.886180 -1.7528240 1.00000 0.00000             
S     core -6.878678 -16.44478 15.984205 -1.7528240 1.00000 0.00000             
Pb    core -6.707050 -16.46053 18.714552 1.75282400 1.00000 0.00000             
Pb    core -4.017134 -16.29405 16.024636 1.75282400 1.00000 0.00000             
S     core -3.976702 18.886180 -16.44478 -1.7528240 1.00000 0.00000             
S     core -6.878678 15.984205 -16.44478 -1.7528240 1.00000 0.00000             
Pb    core -6.707050 18.714552 -16.46053 1.75282400 1.00000 0.00000             
Pb    core -4.017134 16.024636 -16.29405 1.75282400 1.00000 0.00000             
S     core -4.015791 16.023293 28.303296 -1.7528240 1.00000 0.00000             
S     core -6.712287 18.719789 28.477151 -1.7528240 1.00000 0.00000             
Pb    core -3.978804 18.881708 28.447270 1.75282400 1.00000 0.00000             
Pb    core -6.874206 15.986307 28.447270 1.75282400 1.00000 0.00000             
S     core -4.175895 25.261909 -10.09858 -1.7528240 1.00000 0.00000             
S     core -7.122740 22.320027 -10.31252 -1.7528240 1.00000 0.00000             
S     core -4.175895 22.106084 -13.25440 -1.7528240 1.00000 0.00000             
Pb    core -7.044854 25.195502 -10.05522 1.75282400 1.00000 0.00000             
Pb    core -4.231896 22.353018 -10.34551 1.75282400 1.00000 0.00000             
Pb    core -7.044854 22.062723 -13.18799 1.75282400 1.00000 0.00000             
S     core -7.041435 22.068039 25.201934 -1.7528240 1.00000 0.00000             
S     core -4.230373 22.350688 22.350688 -1.7528240 1.00000 0.00000             
S     core -7.041435 25.201934 22.068039 -1.7528240 1.00000 0.00000             
Pb    core -4.172945 22.101251 25.256746 1.75282400 1.00000 0.00000             
Pb    core -4.172945 25.256746 22.101251 1.75282400 1.00000 0.00000             
Pb    core -7.120637 22.322680 22.322680 1.75282400 1.00000 0.00000             
S     core -6.878678 28.452285 -3.976702 -1.7528240 1.00000 0.00000             
S     core -3.976702 28.452285 -6.878678 -1.7528240 1.00000 0.00000             
Pb    core -4.017134 28.301558 -4.017134 1.75282400 1.00000 0.00000             
Pb    core -6.707050 28.468039 -6.707050 1.75282400 1.00000 0.00000             
S     core -6.712287 28.477151 18.719789 -1.7528240 1.00000 0.00000             
S     core -4.015791 28.303296 16.023293 -1.7528240 1.00000 0.00000             
Pb    core -3.978804 28.447270 18.881708 1.75282400 1.00000 0.00000             
Pb    core -6.874206 28.447270 15.986307 1.75282400 1.00000 0.00000             
S     core -10.34318 -4.230373 -10.34318 -1.7528240 1.00000 0.00000             
S     core -13.19443 -7.041435 -10.06053 -1.7528240 1.00000 0.00000             
S     core -10.06053 -7.041435 -13.19443 -1.7528240 1.00000 0.00000             
Pb    core -13.24924 -4.172945 -10.09374 1.75282400 1.00000 0.00000             
Pb    core -10.31517 -7.120637 -10.31517 1.75282400 1.00000 0.00000             
Pb    core -10.09374 -4.172945 -13.24924 1.75282400 1.00000 0.00000             
S     core -10.09858 -4.175895 25.261909 -1.7528240 1.00000 0.00000             
S     core -10.31252 -7.122740 22.320027 -1.7528240 1.00000 0.00000             
S     core -13.25440 -4.175895 22.106084 -1.7528240 1.00000 0.00000             
Pb    core -10.05522 -7.044854 25.195502 1.75282400 1.00000 0.00000             
Pb    core -10.34551 -4.231896 22.353018 1.75282400 1.00000 0.00000             
Pb    core -13.18799 -7.044854 22.062723 1.75282400 1.00000 0.00000             
S     core -10.34318 -10.34318 -4.230373 -1.7528240 1.00000 0.00000             
S     core -10.06053 -13.19443 -7.041435 -1.7528240 1.00000 0.00000             
S     core -13.19443 -10.06053 -7.041435 -1.7528240 1.00000 0.00000             
Pb    core -13.24924 -10.09374 -4.172945 1.75282400 1.00000 0.00000             
Pb    core -10.09374 -13.24924 -4.172945 1.75282400 1.00000 0.00000             
Pb    core -10.31517 -10.31517 -7.120637 1.75282400 1.00000 0.00000             
S     core -10.31252 -10.31252 19.130242 -1.7528240 1.00000 0.00000             
S     core -10.09858 -13.25440 16.183398 -1.7528240 1.00000 0.00000             
S     core -13.25440 -10.09858 16.183398 -1.7528240 1.00000 0.00000             
Pb    core -13.18799 -10.05522 19.052356 1.75282400 1.00000 0.00000             
Pb    core -10.05522 -13.18799 19.052356 1.75282400 1.00000 0.00000             
Pb    core -10.34551 -10.34551 16.239398 1.75282400 1.00000 0.00000             
S     core -10.31252 19.130242 -10.31252 -1.7528240 1.00000 0.00000             
S     core -13.25440 16.183398 -10.09858 -1.7528240 1.00000 0.00000             
S     core -10.09858 16.183398 -13.25440 -1.7528240 1.00000 0.00000             
Pb    core -13.18799 19.052356 -10.05522 1.75282400 1.00000 0.00000             
Pb    core -10.34551 16.239398 -10.34551 1.75282400 1.00000 0.00000             
Pb    core -10.05522 19.052356 -13.18799 1.75282400 1.00000 0.00000             
S     core -10.06053 19.048937 25.201934 -1.7528240 1.00000 0.00000             
S     core -10.34318 16.237875 22.350688 -1.7528240 1.00000 0.00000             
S     core -13.19443 19.048937 22.068039 -1.7528240 1.00000 0.00000             
Pb    core -10.09374 16.180447 25.256746 1.75282400 1.00000 0.00000             
Pb    core -10.31517 19.128139 22.322680 1.75282400 1.00000 0.00000             
Pb    core -13.24924 16.180447 22.101251 1.75282400 1.00000 0.00000             
S     core -10.09858 25.261909 -4.175895 -1.7528240 1.00000 0.00000             
S     core -13.25440 22.106084 -4.175895 -1.7528240 1.00000 0.00000             
S     core -10.31252 22.320027 -7.122740 -1.7528240 1.00000 0.00000             
Pb    core -10.34551 22.353018 -4.231896 1.75282400 1.00000 0.00000             
Pb    core -10.05522 25.195502 -7.044854 1.75282400 1.00000 0.00000             
Pb    core -13.18799 22.062723 -7.044854 1.75282400 1.00000 0.00000             
S     core -10.06053 25.201934 19.048937 -1.7528240 1.00000 0.00000             
S     core -13.19443 22.068039 19.048937 -1.7528240 1.00000 0.00000             
S     core -10.34318 22.350688 16.237875 -1.7528240 1.00000 0.00000             
Pb    core -10.31517 22.322680 19.128139 1.75282400 1.00000 0.00000             
Pb    core -10.09374 25.256746 16.180447 1.75282400 1.00000 0.00000             
Pb    core -13.24924 22.101251 16.180447 1.75282400 1.00000 0.00000             
S     core -16.29579 -4.015791 -4.015791 -1.7528240 1.00000 0.00000             
S     core -16.46964 -6.712287 -6.712287 -1.7528240 1.00000 0.00000             
Pb    core -16.43976 -6.874206 -3.978804 1.75282400 1.00000 0.00000             
Pb    core -16.43976 -3.978804 -6.874206 1.75282400 1.00000 0.00000             
S     core -16.44478 -3.976702 18.886180 -1.7528240 1.00000 0.00000             
S     core -16.44478 -6.878678 15.984205 -1.7528240 1.00000 0.00000             
Pb    core -16.46053 -6.707050 18.714552 1.75282400 1.00000 0.00000             
Pb    core -16.29405 -4.017134 16.024636 1.75282400 1.00000 0.00000             
S     core -16.44478 18.886180 -3.976702 -1.7528240 1.00000 0.00000             
S     core -16.44478 15.984205 -6.878678 -1.7528240 1.00000 0.00000             
Pb    core -16.29405 16.024636 -4.017134 1.75282400 1.00000 0.00000             
Pb    core -16.46053 18.714552 -6.707050 1.75282400 1.00000 0.00000             
S     core -16.46964 18.719789 18.719789 -1.7528240 1.00000 0.00000             
S     core -16.29579 16.023293 16.023293 -1.7528240 1.00000 0.00000             
Pb    core -16.43976 15.986307 18.881708 1.75282400 1.00000 0.00000             
Pb    core -16.43976 18.881708 15.986307 1.75282400 1.00000 0.00000             
S     core 18.886180 -3.976702 -16.44478 -1.7528240 1.00000 0.00000             
S     core 15.984205 -6.878678 -16.44478 -1.7528240 1.00000 0.00000             
Pb    core 16.024636 -4.017134 -16.29405 1.75282400 1.00000 0.00000             
Pb    core 18.714552 -6.707050 -16.46053 1.75282400 1.00000 0.00000             
S     core 18.719789 -6.712287 28.477151 -1.7528240 1.00000 0.00000             
S     core 16.023293 -4.015791 28.303296 -1.7528240 1.00000 0.00000             
Pb    core 18.881708 -3.978804 28.447270 1.75282400 1.00000 0.00000             
Pb    core 15.986307 -6.874206 28.447270 1.75282400 1.00000 0.00000             
S     core 19.130242 -10.31252 -10.31252 -1.7528240 1.00000 0.00000             
S     core 16.183398 -13.25440 -10.09858 -1.7528240 1.00000 0.00000             
S     core 16.183398 -10.09858 -13.25440 -1.7528240 1.00000 0.00000             
Pb    core 16.239398 -10.34551 -10.34551 1.75282400 1.00000 0.00000             
Pb    core 19.052356 -13.18799 -10.05522 1.75282400 1.00000 0.00000             
Pb    core 19.052356 -10.05522 -13.18799 1.75282400 1.00000 0.00000             
S     core 19.048937 -10.06053 25.201934 -1.7528240 1.00000 0.00000             
S     core 19.048937 -13.19443 22.068039 -1.7528240 1.00000 0.00000             
S     core 16.237875 -10.34318 22.350688 -1.7528240 1.00000 0.00000             
Pb    core 16.180447 -10.09374 25.256746 1.75282400 1.00000 0.00000             
Pb    core 19.128139 -10.31517 22.322680 1.75282400 1.00000 0.00000             
Pb    core 16.180447 -13.24924 22.101251 1.75282400 1.00000 0.00000             
S     core 18.886180 -16.44478 -3.976702 -1.7528240 1.00000 0.00000             
S     core 15.984205 -16.44478 -6.878678 -1.7528240 1.00000 0.00000             
Pb    core 16.024636 -16.29405 -4.017134 1.75282400 1.00000 0.00000             
Pb    core 18.714552 -16.46053 -6.707050 1.75282400 1.00000 0.00000             
S     core 18.719789 -16.46964 18.719789 -1.7528240 1.00000 0.00000             
S     core 16.023293 -16.29579 16.023293 -1.7528240 1.00000 0.00000             
Pb    core 15.986307 -16.43976 18.881708 1.75282400 1.00000 0.00000             
Pb    core 18.881708 -16.43976 15.986307 1.75282400 1.00000 0.00000             
S     core 18.719789 18.719789 -16.46964 -1.7528240 1.00000 0.00000             
S     core 16.023293 16.023293 -16.29579 -1.7528240 1.00000 0.00000             
Pb    core 15.986307 18.881708 -16.43976 1.75282400 1.00000 0.00000             
Pb    core 18.881708 15.986307 -16.43976 1.75282400 1.00000 0.00000             
S     core 18.886180 15.984205 28.452285 -1.7528240 1.00000 0.00000             
S     core 15.984205 18.886180 28.452285 -1.7528240 1.00000 0.00000             
Pb    core 18.714552 18.714552 28.468039 1.75282400 1.00000 0.00000             
Pb    core 16.024636 16.024636 28.301558 1.75282400 1.00000 0.00000             
S     core 19.048937 25.201934 -10.06053 -1.7528240 1.00000 0.00000             
S     core 16.237875 22.350688 -10.34318 -1.7528240 1.00000 0.00000             
S     core 19.048937 22.068039 -13.19443 -1.7528240 1.00000 0.00000             
Pb    core 16.180447 25.256746 -10.09374 1.75282400 1.00000 0.00000             
Pb    core 19.128139 22.322680 -10.31517 1.75282400 1.00000 0.00000             
Pb    core 16.180447 22.101251 -13.24924 1.75282400 1.00000 0.00000             
S     core 16.183398 22.106084 25.261909 -1.7528240 1.00000 0.00000             
S     core 19.130242 22.320027 22.320027 -1.7528240 1.00000 0.00000             
S     core 16.183398 25.261909 22.106084 -1.7528240 1.00000 0.00000             
Pb    core 19.052356 22.062723 25.195502 1.75282400 1.00000 0.00000             
Pb    core 19.052356 25.195502 22.062723 1.75282400 1.00000 0.00000             
Pb    core 16.239398 22.353018 22.353018 1.75282400 1.00000 0.00000             
S     core 16.023293 28.303296 -4.015791 -1.7528240 1.00000 0.00000             
S     core 18.719789 28.477151 -6.712287 -1.7528240 1.00000 0.00000             
Pb    core 18.881708 28.447270 -3.978804 1.75282400 1.00000 0.00000             
Pb    core 15.986307 28.447270 -6.874206 1.75282400 1.00000 0.00000             
S     core 15.984205 28.452285 18.886180 -1.7528240 1.00000 0.00000             
S     core 18.886180 28.452285 15.984205 -1.7528240 1.00000 0.00000             
Pb    core 18.714552 28.468039 18.714552 1.75282400 1.00000 0.00000             
Pb    core 16.024636 28.301558 16.024636 1.75282400 1.00000 0.00000             
S     core 25.261909 -4.175895 -10.09858 -1.7528240 1.00000 0.00000             
S     core 22.320027 -7.122740 -10.31252 -1.7528240 1.00000 0.00000             
S     core 22.106084 -4.175895 -13.25440 -1.7528240 1.00000 0.00000             
Pb    core 22.353018 -4.231896 -10.34551 1.75282400 1.00000 0.00000             
Pb    core 25.195502 -7.044854 -10.05522 1.75282400 1.00000 0.00000             
Pb    core 22.062723 -7.044854 -13.18799 1.75282400 1.00000 0.00000             
S     core 22.068039 -7.041435 25.201934 -1.7528240 1.00000 0.00000             
S     core 25.201934 -7.041435 22.068039 -1.7528240 1.00000 0.00000             
S     core 22.350688 -4.230373 22.350688 -1.7528240 1.00000 0.00000             
Pb    core 22.101251 -4.172945 25.256746 1.75282400 1.00000 0.00000             
Pb    core 25.256746 -4.172945 22.101251 1.75282400 1.00000 0.00000             
Pb    core 22.322680 -7.120637 22.322680 1.75282400 1.00000 0.00000             
S     core 25.261909 -10.09858 -4.175895 -1.7528240 1.00000 0.00000             
S     core 22.106084 -13.25440 -4.175895 -1.7528240 1.00000 0.00000             
S     core 22.320027 -10.31252 -7.122740 -1.7528240 1.00000 0.00000             
Pb    core 22.353018 -10.34551 -4.231896 1.75282400 1.00000 0.00000             
Pb    core 25.195502 -10.05522 -7.044854 1.75282400 1.00000 0.00000             
Pb    core 22.062723 -13.18799 -7.044854 1.75282400 1.00000 0.00000             
S     core 25.201934 -10.06053 19.048937 -1.7528240 1.00000 0.00000             
S     core 22.068039 -13.19443 19.048937 -1.7528240 1.00000 0.00000             
S     core 22.350688 -10.34318 16.237875 -1.7528240 1.00000 0.00000             
Pb    core 22.322680 -10.31517 19.128139 1.75282400 1.00000 0.00000             
Pb    core 25.256746 -10.09374 16.180447 1.75282400 1.00000 0.00000             
Pb    core 22.101251 -13.24924 16.180447 1.75282400 1.00000 0.00000             
S     core 25.201934 19.048937 -10.06053 -1.7528240 1.00000 0.00000             
S     core 22.350688 16.237875 -10.34318 -1.7528240 1.00000 0.00000             
S     core 22.068039 19.048937 -13.19443 -1.7528240 1.00000 0.00000             
Pb    core 22.322680 19.128139 -10.31517 1.75282400 1.00000 0.00000             
Pb    core 25.256746 16.180447 -10.09374 1.75282400 1.00000 0.00000             
Pb    core 22.101251 16.180447 -13.24924 1.75282400 1.00000 0.00000             
S     core 22.106084 16.183398 25.261909 -1.7528240 1.00000 0.00000             
S     core 25.261909 16.183398 22.106084 -1.7528240 1.00000 0.00000             
S     core 22.320027 19.130242 22.320027 -1.7528240 1.00000 0.00000             
Pb    core 22.062723 19.052356 25.195502 1.75282400 1.00000 0.00000             
Pb    core 25.195502 19.052356 22.062723 1.75282400 1.00000 0.00000             
Pb    core 22.353018 16.239398 22.353018 1.75282400 1.00000 0.00000             
S     core 22.350688 22.350688 -4.230373 -1.7528240 1.00000 0.00000             
S     core 25.201934 22.068039 -7.041435 -1.7528240 1.00000 0.00000             
S     core 22.068039 25.201934 -7.041435 -1.7528240 1.00000 0.00000             
Pb    core 22.101251 25.256746 -4.172945 1.75282400 1.00000 0.00000             
Pb    core 25.256746 22.101251 -4.172945 1.75282400 1.00000 0.00000             
Pb    core 22.322680 22.322680 -7.120637 1.75282400 1.00000 0.00000             
S     core 22.320027 22.320027 19.130242 -1.7528240 1.00000 0.00000             
S     core 25.261909 22.106084 16.183398 -1.7528240 1.00000 0.00000             
S     core 22.106084 25.261909 16.183398 -1.7528240 1.00000 0.00000             
Pb    core 22.062723 25.195502 19.052356 1.75282400 1.00000 0.00000             
Pb    core 25.195502 22.062723 19.052356 1.75282400 1.00000 0.00000             
Pb    core 22.353018 22.353018 16.239398 1.75282400 1.00000 0.00000             
S     core 28.452285 -6.878678 -3.976702 -1.7528240 1.00000 0.00000             
S     core 28.452285 -3.976702 -6.878678 -1.7528240 1.00000 0.00000             
Pb    core 28.301558 -4.017134 -4.017134 1.75282400 1.00000 0.00000             
Pb    core 28.468039 -6.707050 -6.707050 1.75282400 1.00000 0.00000             
S     core 28.477151 -6.712287 18.719789 -1.7528240 1.00000 0.00000             
S     core 28.303296 -4.015791 16.023293 -1.7528240 1.00000 0.00000             
Pb    core 28.447270 -3.978804 18.881708 1.75282400 1.00000 0.00000             
Pb    core 28.447270 -6.874206 15.986307 1.75282400 1.00000 0.00000             
S     core 28.303296 16.023293 -4.015791 -1.7528240 1.00000 0.00000             
S     core 28.477151 18.719789 -6.712287 -1.7528240 1.00000 0.00000             
Pb    core 28.447270 18.881708 -3.978804 1.75282400 1.00000 0.00000             
Pb    core 28.447270 15.986307 -6.874206 1.75282400 1.00000 0.00000             
S     core 28.452285 15.984205 18.886180 -1.7528240 1.00000 0.00000             
S     core 28.452285 18.886180 15.984205 -1.7528240 1.00000 0.00000             
Pb    core 28.468039 18.714552 18.714552 1.75282400 1.00000 0.00000             
Pb    core 28.301558 16.024636 16.024636 1.75282400 1.00000 0.00000             
S     core 1.6921081 -4.085338 -16.24814 -1.7528240 1.00000 0.00000             
S     core -1.146923 -6.919274 -16.38942 -1.7528240 1.00000 0.00000             
Pb    core -1.176403 -4.069363 -16.25680 1.75282400 1.00000 0.00000             
Pb    core 1.6993700 -6.928939 -16.38135 1.75282400 1.00000 0.00000             
S     core 1.7000446 -6.933040 28.393710 -1.7528240 1.00000 0.00000             
S     core -1.176750 -4.067809 28.267601 -1.7528240 1.00000 0.00000             
Pb    core 1.6924063 -4.086441 28.252673 1.75282400 1.00000 0.00000             
Pb    core -1.145227 -6.914563 28.392168 1.75282400 1.00000 0.00000             
S     core 1.6128888 -10.37047 -10.37047 -1.7528240 1.00000 0.00000             
S     core -1.280960 -13.26371 -10.14581 -1.7528240 1.00000 0.00000             
S     core -1.280960 -10.14581 -13.26371 -1.7528240 1.00000 0.00000             
Pb    core -1.315928 -10.36061 -10.36061 1.75282400 1.00000 0.00000             
Pb    core 1.6229330 -13.26738 -10.15949 1.75282400 1.00000 0.00000             
Pb    core 1.6229330 -10.15949 -13.26738 1.75282400 1.00000 0.00000             
S     core 1.6218106 -10.16427 25.279994 -1.7528240 1.00000 0.00000             
S     core 1.6218106 -13.27249 22.171773 -1.7528240 1.00000 0.00000             
S     core -1.317265 -10.35902 22.366523 -1.7528240 1.00000 0.00000             
Pb    core -1.282188 -10.14121 25.266387 1.75282400 1.00000 0.00000             
Pb    core 1.6121301 -10.37248 22.379990 1.75282400 1.00000 0.00000             
Pb    core -1.282188 -13.25888 22.148714 1.75282400 1.00000 0.00000             
S     core 1.6921081 -16.24814 -4.085338 -1.7528240 1.00000 0.00000             
S     core -1.146923 -16.38942 -6.919274 -1.7528240 1.00000 0.00000             
Pb    core -1.176403 -16.25680 -4.069363 1.75282400 1.00000 0.00000             
Pb    core 1.6993700 -16.38135 -6.928939 1.75282400 1.00000 0.00000             
S     core 1.7000446 -16.38620 18.940542 -1.7528240 1.00000 0.00000             
S     core -1.176750 -16.26009 16.075311 -1.7528240 1.00000 0.00000             
Pb    core -1.145227 -16.38466 18.922066 1.75282400 1.00000 0.00000             
Pb    core 1.6924063 -16.24517 16.093943 1.75282400 1.00000 0.00000             
S     core 1.7000446 18.940542 -16.38620 -1.7528240 1.00000 0.00000             
S     core -1.176750 16.075311 -16.26009 -1.7528240 1.00000 0.00000             
Pb    core -1.145227 18.922066 -16.38466 1.75282400 1.00000 0.00000             
Pb    core 1.6924063 16.093943 -16.24517 1.75282400 1.00000 0.00000             
S     core 1.6921081 16.092840 28.255651 -1.7528240 1.00000 0.00000             
S     core -1.146923 18.926776 28.396929 -1.7528240 1.00000 0.00000             
Pb    core 1.6993700 18.936441 28.388861 1.75282400 1.00000 0.00000             
Pb    core -1.176403 16.076866 28.264310 1.75282400 1.00000 0.00000             
S     core 1.6218106 25.279994 -10.16427 -1.7528240 1.00000 0.00000             
S     core -1.317265 22.366523 -10.35902 -1.7528240 1.00000 0.00000             
S     core 1.6218106 22.171773 -13.27249 -1.7528240 1.00000 0.00000             
Pb    core -1.282188 25.266387 -10.14121 1.75282400 1.00000 0.00000             
Pb    core 1.6121301 22.379990 -10.37248 1.75282400 1.00000 0.00000             
Pb    core -1.282188 22.148714 -13.25888 1.75282400 1.00000 0.00000             
S     core -1.280960 22.153313 25.271220 -1.7528240 1.00000 0.00000             
S     core 1.6128888 22.377979 22.377979 -1.7528240 1.00000 0.00000             
S     core -1.280960 25.271220 22.153313 -1.7528240 1.00000 0.00000             
Pb    core 1.6229330 22.166999 25.274887 1.75282400 1.00000 0.00000             
Pb    core 1.6229330 25.274887 22.166999 1.75282400 1.00000 0.00000             
Pb    core -1.315928 22.368117 22.368117 1.75282400 1.00000 0.00000             
S     core -1.176750 28.267601 -4.067809 -1.7528240 1.00000 0.00000             
S     core 1.7000446 28.393710 -6.933040 -1.7528240 1.00000 0.00000             
Pb    core 1.6924063 28.252673 -4.086441 1.75282400 1.00000 0.00000             
Pb    core -1.145227 28.392168 -6.914563 1.75282400 1.00000 0.00000             
S     core -1.146923 28.396929 18.926776 -1.7528240 1.00000 0.00000             
S     core 1.6921081 28.255651 16.092840 -1.7528240 1.00000 0.00000             
Pb    core 1.6993700 28.388861 18.936441 1.75282400 1.00000 0.00000             
Pb    core -1.176403 28.264310 16.076866 1.75282400 1.00000 0.00000             
S     core -4.085338 1.6921081 -16.24814 -1.7528240 1.00000 0.00000             
S     core -6.919274 -1.146923 -16.38942 -1.7528240 1.00000 0.00000             
Pb    core -6.928939 1.6993700 -16.38135 1.75282400 1.00000 0.00000             
Pb    core -4.069363 -1.176403 -16.25680 1.75282400 1.00000 0.00000             
S     core -4.067809 -1.176750 28.267601 -1.7528240 1.00000 0.00000             
S     core -6.933040 1.7000446 28.393710 -1.7528240 1.00000 0.00000             
Pb    core -4.086441 1.6924063 28.252673 1.75282400 1.00000 0.00000             
Pb    core -6.914563 -1.145227 28.392168 1.75282400 1.00000 0.00000             
S     core -4.367914 -4.367914 -10.35212 -1.7528240 1.00000 0.00000             
S     core -7.353523 -7.353523 -10.33200 -1.7528240 1.00000 0.00000             
S     core -4.191061 -7.228374 -13.43827 -1.7528240 1.00000 0.00000             
S     core -7.228374 -4.191061 -13.43827 -1.7528240 1.00000 0.00000             
Pb    core -7.323495 -4.341160 -10.38655 1.75282400 1.00000 0.00000             
Pb    core -4.341160 -7.323495 -10.38655 1.75282400 1.00000 0.00000             
Pb    core -4.255405 -4.255405 -13.33328 1.75282400 1.00000 0.00000             
Pb    core -7.153337 -7.153337 -13.70426 1.75282400 1.00000 0.00000             
S     core -4.256377 -4.256377 25.341930 -1.7528240 1.00000 0.00000             
S     core -7.151090 -7.151090 25.705265 -1.7528240 1.00000 0.00000             
S     core -4.340495 -7.324022 22.394140 -1.7528240 1.00000 0.00000             
S     core -7.324022 -4.340495 22.394140 -1.7528240 1.00000 0.00000             
Pb    core -7.230888 -4.190139 25.446525 1.75282400 1.00000 0.00000             
Pb    core -4.190139 -7.230888 25.446525 1.75282400 1.00000 0.00000             
Pb    core -4.367705 -4.367705 22.360302 1.75282400 1.00000 0.00000             
Pb    core -7.351346 -7.351346 22.336578 1.75282400 1.00000 0.00000             
S     core -4.367914 -10.35212 -4.367914 -1.7528240 1.00000 0.00000             
S     core -7.228374 -13.43827 -4.191061 -1.7528240 1.00000 0.00000             
S     core -4.191061 -13.43827 -7.228374 -1.7528240 1.00000 0.00000             
S     core -7.353523 -10.33200 -7.353523 -1.7528240 1.00000 0.00000             
Pb    core -7.323495 -10.38655 -4.341160 1.75282400 1.00000 0.00000             
Pb    core -4.255405 -13.33328 -4.255405 1.75282400 1.00000 0.00000             
Pb    core -4.341160 -10.38655 -7.323495 1.75282400 1.00000 0.00000             
Pb    core -7.153337 -13.70426 -7.153337 1.75282400 1.00000 0.00000             
S     core -4.340495 -10.38663 19.331524 -1.7528240 1.00000 0.00000             
S     core -7.151090 -13.69776 19.158592 -1.7528240 1.00000 0.00000             
S     core -4.256377 -13.33442 16.263879 -1.7528240 1.00000 0.00000             
S     core -7.324022 -10.38663 16.347997 -1.7528240 1.00000 0.00000             
Pb    core -7.351346 -10.32907 19.358848 1.75282400 1.00000 0.00000             
Pb    core -4.190139 -13.43902 19.238390 1.75282400 1.00000 0.00000             
Pb    core -4.367705 -10.35280 16.375207 1.75282400 1.00000 0.00000             
Pb    core -7.230888 -13.43902 16.197641 1.75282400 1.00000 0.00000             
S     core -4.085338 -16.24814 1.6921081 -1.7528240 1.00000 0.00000             