# 
# Keywords:
# 
conp opti  
# 
# Options:
# 
cartesian 
S     core -9.228371 -9.135743 -9.228371 -1.7528240 1.00000 0.00000             
Pb    core -11.81946 -8.223431 -8.316659 1.75282400 1.00000 0.00000             
Pb    core -8.323740 -11.73254 -8.323740 1.75282400 1.00000 0.00000             
Pb    core -8.316659 -8.223431 -11.81946 1.75282400 1.00000 0.00000             
Pb    core -8.319121 -8.291043 23.773820 1.75282400 1.00000 0.00000             
Pb    core -8.258156 23.858804 -8.258156 1.75282400 1.00000 0.00000             
Pb    core 23.773820 -8.291043 -8.319121 1.75282400 1.00000 0.00000             
S     core -2.576129 -2.499139 -14.82781 -1.7528240 1.00000 0.00000             
S     core -5.278625 -5.190807 -15.00929 -1.7528240 1.00000 0.00000             
Pb    core -5.432722 -2.457454 -14.97194 1.75282400 1.00000 0.00000             
Pb    core -2.545515 -5.355904 -14.97761 1.75282400 1.00000 0.00000             
S     core -2.790700 -8.814683 -8.893749 -1.7528240 1.00000 0.00000             
S     core -5.608022 -11.66431 -8.628420 -1.7528240 1.00000 0.00000             
S     core -5.601520 -8.532781 -11.74781 -1.7528240 1.00000 0.00000             
Pb    core -5.680602 -8.785954 -8.870132 1.75282400 1.00000 0.00000             
Pb    core -2.739638 -11.72100 -8.658776 1.75282400 1.00000 0.00000             
Pb    core -2.733121 -8.568958 -11.79861 1.75282400 1.00000 0.00000             
S     core -5.603488 -8.599027 23.702048 -1.7528240 1.00000 0.00000             
Pb    core -2.735975 -8.637828 23.750931 1.75282400 1.00000 0.00000             
S     core -2.601087 -14.77385 -2.601087 -1.7528240 1.00000 0.00000             
S     core -5.298680 -14.93925 -5.298680 -1.7528240 1.00000 0.00000             
Pb    core -5.457862 -14.91272 -2.565145 1.75282400 1.00000 0.00000             
Pb    core -2.565145 -14.91272 -5.457862 1.75282400 1.00000 0.00000             
S     core -5.300492 -14.98235 17.226700 -1.7528240 1.00000 0.00000             
Pb    core -2.567176 -14.95805 17.384514 1.75282400 1.00000 0.00000             
S     core -5.234537 17.333589 -14.96536 -1.7528240 1.00000 0.00000             
Pb    core -2.501344 17.485191 -14.93546 1.75282400 1.00000 0.00000             
S     core -5.541358 23.783091 -8.560441 -1.7528240 1.00000 0.00000             
Pb    core -2.674368 23.826171 -8.593826 1.75282400 1.00000 0.00000             
S     core -8.881577 -2.700652 -8.881577 -1.7528240 1.00000 0.00000             
S     core -11.74185 -5.507153 -8.615918 -1.7528240 1.00000 0.00000             
S     core -8.615918 -5.507153 -11.74185 -1.7528240 1.00000 0.00000             
Pb    core -11.78691 -2.638983 -8.640613 1.75282400 1.00000 0.00000             
Pb    core -8.863856 -5.591195 -8.863856 1.75282400 1.00000 0.00000             
Pb    core -8.640613 -2.638983 -11.78691 1.75282400 1.00000 0.00000             
S     core -8.616309 -5.573603 23.707941 -1.7528240 1.00000 0.00000             
Pb    core -8.641743 -2.706412 23.762971 1.75282400 1.00000 0.00000             
S     core -8.893749 -8.814683 -2.790700 -1.7528240 1.00000 0.00000             
S     core -8.628420 -11.66431 -5.608022 -1.7528240 1.00000 0.00000             
S     core -11.74781 -8.532781 -5.601520 -1.7528240 1.00000 0.00000             
Pb    core -11.79861 -8.568958 -2.733121 1.75282400 1.00000 0.00000             
Pb    core -8.658776 -11.72100 -2.739638 1.75282400 1.00000 0.00000             
Pb    core -8.870132 -8.785954 -5.680602 1.75282400 1.00000 0.00000             
S     core -9.229105 -9.192575 21.179775 -1.7528240 1.00000 0.00000             
S     core -8.629675 -11.70766 17.548779 -1.7528240 1.00000 0.00000             
S     core -11.74803 -8.576025 17.554994 -1.7528240 1.00000 0.00000             
Pb    core -11.82127 -8.277838 20.270709 1.75282400 1.00000 0.00000             
Pb    core -8.326352 -11.78725 20.263779 1.75282400 1.00000 0.00000             
Pb    core -8.870984 -8.830028 17.631639 1.75282400 1.00000 0.00000             
S     core -9.169727 21.269648 -9.169727 -1.7528240 1.00000 0.00000             
S     core -11.69680 17.647774 -8.571088 -1.7528240 1.00000 0.00000             
S     core -8.571088 17.647774 -11.69680 -1.7528240 1.00000 0.00000             
Pb    core -11.76671 20.362142 -8.263590 1.75282400 1.00000 0.00000             
Pb    core -8.819490 17.719685 -8.819490 1.75282400 1.00000 0.00000             
Pb    core -8.263590 20.362142 -11.76671 1.75282400 1.00000 0.00000             
S     core -8.563235 17.581611 23.752156 -1.7528240 1.00000 0.00000             
Pb    core -8.262034 20.296004 23.830648 1.75282400 1.00000 0.00000             
S     core -8.560441 23.783091 -5.541358 -1.7528240 1.00000 0.00000             
Pb    core -8.593826 23.826171 -2.674368 1.75282400 1.00000 0.00000             
S     core -8.565514 23.734960 17.613905 -1.7528240 1.00000 0.00000             
Pb    core -8.265966 23.805608 20.329940 1.75282400 1.00000 0.00000             
S     core -14.82781 -2.499139 -2.576129 -1.7528240 1.00000 0.00000             
S     core -15.00929 -5.190807 -5.278625 -1.7528240 1.00000 0.00000             
Pb    core -14.97761 -5.355904 -2.545515 1.75282400 1.00000 0.00000             
Pb    core -14.97194 -2.457454 -5.432722 1.75282400 1.00000 0.00000             
S     core -15.00867 -5.232942 17.246787 -1.7528240 1.00000 0.00000             
Pb    core -14.97240 -2.500613 17.409970 1.75282400 1.00000 0.00000             
S     core -14.96536 17.333589 -5.234537 -1.7528240 1.00000 0.00000             
Pb    core -14.93546 17.485191 -2.501344 1.75282400 1.00000 0.00000             
S     core -14.96334 17.290003 17.290723 -1.7528240 1.00000 0.00000             
S     core 17.246787 -5.232942 -15.00867 -1.7528240 1.00000 0.00000             
Pb    core 17.409970 -2.500613 -14.97240 1.75282400 1.00000 0.00000             
S     core 21.179775 -9.192575 -9.229105 -1.7528240 1.00000 0.00000             
S     core 17.548779 -11.70766 -8.629675 -1.7528240 1.00000 0.00000             
S     core 17.554994 -8.576025 -11.74803 -1.7528240 1.00000 0.00000             
Pb    core 17.631639 -8.830028 -8.870984 1.75282400 1.00000 0.00000             
Pb    core 20.263779 -11.78725 -8.326352 1.75282400 1.00000 0.00000             
Pb    core 20.270709 -8.277838 -11.82127 1.75282400 1.00000 0.00000             
S     core 17.550052 -8.658463 23.699499 -1.7528240 1.00000 0.00000             
Pb    core 20.266720 -8.367738 23.771608 1.75282400 1.00000 0.00000             
S     core 17.226700 -14.98235 -5.300492 -1.7528240 1.00000 0.00000             
Pb    core 17.384514 -14.95805 -2.567176 1.75282400 1.00000 0.00000             
S     core 17.223527 -15.03376 17.223527 -1.7528240 1.00000 0.00000             
S     core 17.290723 17.290003 -14.96334 -1.7528240 1.00000 0.00000             
S     core 17.613905 23.734960 -8.565514 -1.7528240 1.00000 0.00000             
Pb    core 20.329940 23.805608 -8.265966 1.75282400 1.00000 0.00000             
S     core 23.707941 -5.573603 -8.616309 -1.7528240 1.00000 0.00000             
Pb    core 23.762971 -2.706412 -8.641743 1.75282400 1.00000 0.00000             
S     core 23.702048 -8.599027 -5.603488 -1.7528240 1.00000 0.00000             
Pb    core 23.750931 -8.637828 -2.735975 1.75282400 1.00000 0.00000             
S     core 23.699499 -8.658463 17.550052 -1.7528240 1.00000 0.00000             
Pb    core 23.771608 -8.367738 20.266720 1.75282400 1.00000 0.00000             
S     core 23.752156 17.581611 -8.563235 -1.7528240 1.00000 0.00000             
Pb    core 23.830648 20.296004 -8.262034 1.75282400 1.00000 0.00000             
S     core 3.1235292 -2.575215 -14.77695 -1.7528240 1.00000 0.00000             
S     core 0.2828494 -5.405260 -14.92678 -1.7528240 1.00000 0.00000             
Pb    core 0.2610848 -2.556306 -14.78696 1.75282400 1.00000 0.00000             
Pb    core 3.1249243 -5.419070 -14.91533 1.75282400 1.00000 0.00000             
S     core 3.0501913 -8.846672 -8.914979 -1.7528240 1.00000 0.00000             
S     core 0.1501200 -11.73830 -8.709147 -1.7528240 1.00000 0.00000             
S     core 0.1566120 -8.623972 -11.81122 -1.7528240 1.00000 0.00000             
Pb    core 0.1240309 -8.835162 -8.908452 1.75282400 1.00000 0.00000             
Pb    core 3.0539953 -11.74448 -8.719447 1.75282400 1.00000 0.00000             
Pb    core 3.0604315 -8.640239 -11.81149 1.75282400 1.00000 0.00000             
S     core 0.1542548 -8.692018 23.764431 -1.7528240 1.00000 0.00000             
Pb    core 3.0566947 -8.711924 23.762727 1.75282400 1.00000 0.00000             
S     core 3.0986833 -14.73372 -2.666685 -1.7528240 1.00000 0.00000             
S     core 0.2632546 -14.86674 -5.502500 -1.7528240 1.00000 0.00000             
Pb    core 0.2363606 -14.73839 -2.652475 1.75282400 1.00000 0.00000             
Pb    core 3.1053783 -14.86104 -5.510506 1.75282400 1.00000 0.00000             
S     core 0.2613166 -14.91146 17.430407 -1.7528240 1.00000 0.00000             
Pb    core 3.1029758 -14.90805 17.436159 1.75282400 1.00000 0.00000             
S     core 0.3276765 17.526616 -14.88147 -1.7528240 1.00000 0.00000             
Pb    core 3.1689327 17.526208 -14.87253 1.75282400 1.00000 0.00000             
S     core 0.2176949 23.835717 -8.640071 -1.7528240 1.00000 0.00000             
Pb    core 3.1189568 23.827529 -8.654798 1.75282400 1.00000 0.00000             
S     core -2.630220 3.2005192 -14.76550 -1.7528240 1.00000 0.00000             
S     core -5.471574 0.3711687 -14.91523 -1.7528240 1.00000 0.00000             
Pb    core -5.474073 3.2125704 -14.89834 1.75282400 1.00000 0.00000             
Pb    core -2.621991 0.3377101 -14.78122 1.75282400 1.00000 0.00000             
S     core -2.910155 -2.842975 -8.883135 -1.7528240 1.00000 0.00000             
S     core -5.903556 -5.824669 -8.878500 -1.7528240 1.00000 0.00000             
S     core -2.749515 -5.703671 -11.97613 -1.7528240 1.00000 0.00000             
S     core -5.776027 -2.665567 -11.97011 -1.7528240 1.00000 0.00000             
Pb    core -5.864631 -2.813451 -8.920643 1.75282400 1.00000 0.00000             
Pb    core -2.891363 -5.797857 -8.926557 1.75282400 1.00000 0.00000             
Pb    core -2.805115 -2.733343 -11.86399 1.75282400 1.00000 0.00000             
Pb    core -5.708530 -5.624595 -12.23998 1.75282400 1.00000 0.00000             
S     core -2.576591 -2.577089 26.805047 -1.7528240 1.00000 0.00000             
S     core -5.279853 -5.268271 26.976199 -1.7528240 1.00000 0.00000             
S     core -2.750655 -5.771743 23.941368 -1.7528240 1.00000 0.00000             
S     core -5.776215 -2.731996 23.947394 -1.7528240 1.00000 0.00000             
Pb    core -5.434304 -2.535702 26.948640 1.75282400 1.00000 0.00000             
Pb    core -2.547718 -5.436256 26.942776 1.75282400 1.00000 0.00000             
Pb    core -2.806773 -2.802179 23.839837 1.75282400 1.00000 0.00000             
Pb    core -5.710419 -5.693914 24.204766 1.75282400 1.00000 0.00000             
S     core -2.922266 -8.827087 -2.922266 -1.7528240 1.00000 0.00000             
S     core -5.794655 -11.90908 -2.762235 -1.7528240 1.00000 0.00000             
S     core -2.762235 -11.90908 -5.794655 -1.7528240 1.00000 0.00000             
S     core -5.909609 -8.805066 -5.909609 -1.7528240 1.00000 0.00000             
Pb    core -5.876654 -8.859499 -2.897500 1.75282400 1.00000 0.00000             
Pb    core -2.823368 -11.80886 -2.823368 1.75282400 1.00000 0.00000             
Pb    core -2.897500 -8.859499 -5.876654 1.75282400 1.00000 0.00000             
Pb    core -5.721699 -12.16752 -5.721699 1.75282400 1.00000 0.00000             
S     core -2.792762 -8.871629 20.846380 -1.7528240 1.00000 0.00000             
S     core -5.610537 -11.71966 20.569988 -1.7528240 1.00000 0.00000             
S     core -2.764179 -11.95436 17.734642 -1.7528240 1.00000 0.00000             
S     core -5.910548 -8.849175 17.862678 -1.7528240 1.00000 0.00000             
Pb    core -5.683433 -8.842887 20.822335 1.75282400 1.00000 0.00000             
Pb    core -2.742631 -11.77829 20.598338 1.75282400 1.00000 0.00000             
Pb    core -2.899685 -8.905872 17.827601 1.75282400 1.00000 0.00000             
Pb    core -5.723820 -12.21297 17.659907 1.75282400 1.00000 0.00000             
S     core -2.666685 -14.73372 3.0986833 -1.7528240 1.00000 0.00000             
S     core -5.502500 -14.86674 0.2632546 -1.7528240 1.00000 0.00000             
Pb    core -5.510506 -14.86104 3.1053783 1.75282400 1.00000 0.00000             
Pb    core -2.652475 -14.73839 0.2363606 1.75282400 1.00000 0.00000             
S     core -2.602903 -14.80705 14.529449 -1.7528240 1.00000 0.00000             
S     core -5.503778 -14.88836 11.665014 -1.7528240 1.00000 0.00000             
Pb    core -5.459895 -14.94597 14.492466 1.75282400 1.00000 0.00000             
Pb    core -2.653983 -14.76084 11.691079 1.75282400 1.00000 0.00000             
S     core -2.542744 14.630522 -14.79472 -1.7528240 1.00000 0.00000             
S     core -5.449254 11.772344 -14.89289 -1.7528240 1.00000 0.00000             
Pb    core -5.400222 14.599243 -14.94012 1.75282400 1.00000 0.00000             
Pb    core -2.599989 11.791709 -14.75956 1.75282400 1.00000 0.00000             
S     core -2.734534 20.923684 -8.836688 -1.7528240 1.00000 0.00000             
S     core -5.857473 17.946124 -8.831411 -1.7528240 1.00000 0.00000             
S     core -2.704231 17.824303 -11.93015 -1.7528240 1.00000 0.00000             
S     core -5.546913 20.663850 -11.69152 -1.7528240 1.00000 0.00000             
Pb    core -5.626700 20.904161 -8.814543 1.75282400 1.00000 0.00000             
Pb    core -2.847530 17.904702 -8.882458 1.75282400 1.00000 0.00000             
Pb    core -2.679152 20.686262 -11.74468 1.75282400 1.00000 0.00000             
Pb    core -5.664451 17.755356 -12.19558 1.75282400 1.00000 0.00000             
S     core -5.223392 17.258082 27.016984 -1.7528240 1.00000 0.00000             
S     core -2.694349 17.760557 23.984644 -1.7528240 1.00000 0.00000             
S     core -5.542644 20.599674 23.756882 -1.7528240 1.00000 0.00000             
Pb    core -2.493641 17.407666 26.987597 1.75282400 1.00000 0.00000             
Pb    core -2.678899 20.621129 23.807939 1.75282400 1.00000 0.00000             
Pb    core -5.661201 17.688037 24.248721 1.75282400 1.00000 0.00000             
S     core -2.523014 26.857657 -2.523014 -1.7528240 1.00000 0.00000             
S     core -5.726514 24.006196 -2.693673 -1.7528240 1.00000 0.00000             
S     core -2.693673 24.006196 -5.726514 -1.7528240 1.00000 0.00000             
S     core -5.219623 27.042994 -5.219623 -1.7528240 1.00000 0.00000             
Pb    core -5.382256 27.005063 -2.488231 1.75282400 1.00000 0.00000             
Pb    core -2.758654 23.892978 -2.758654 1.75282400 1.00000 0.00000             
Pb    core -2.488231 27.005063 -5.382256 1.75282400 1.00000 0.00000             
Pb    core -5.654538 24.272879 -5.654538 1.75282400 1.00000 0.00000             
S     core -5.546734 23.730605 20.634430 -1.7528240 1.00000 0.00000             
S     core -2.702005 23.961821 17.800464 -1.7528240 1.00000 0.00000             
S     core -5.241571 26.997350 17.298135 -1.7528240 1.00000 0.00000             
Pb    core -2.684887 23.773402 20.665007 1.75282400 1.00000 0.00000             
Pb    core -2.515786 26.961849 17.458542 1.75282400 1.00000 0.00000             
Pb    core -5.666900 24.223791 17.724922 1.75282400 1.00000 0.00000             
S     core -8.890966 3.1403272 -8.890966 -1.7528240 1.00000 0.00000             
S     core -11.79341 0.2514236 -8.684934 -1.7528240 1.00000 0.00000             
S     core -8.684934 0.2514236 -11.79341 -1.7528240 1.00000 0.00000             
Pb    core -11.78815 3.1543869 -8.689672 1.75282400 1.00000 0.00000             
Pb    core -8.890438 0.2135853 -8.890438 1.75282400 1.00000 0.00000             
Pb    core -8.689672 3.1543869 -11.78815 1.75282400 1.00000 0.00000             
S     core -8.683414 0.1856680 23.782403 -1.7528240 1.00000 0.00000             
Pb    core -8.689385 3.0871096 23.787047 1.75282400 1.00000 0.00000             
S     core -8.883135 -2.842975 -2.910155 -1.7528240 1.00000 0.00000             
S     core -11.97613 -5.703671 -2.749515 -1.7528240 1.00000 0.00000             
S     core -8.878500 -5.824669 -5.903556 -1.7528240 1.00000 0.00000             
S     core -11.97011 -2.665567 -5.776027 -1.7528240 1.00000 0.00000             
Pb    core -11.86399 -2.733343 -2.805115 1.75282400 1.00000 0.00000             
Pb    core -8.926557 -5.797857 -2.891363 1.75282400 1.00000 0.00000             
Pb    core -8.920643 -2.813451 -5.864631 1.75282400 1.00000 0.00000             
Pb    core -12.23998 -5.624595 -5.708530 1.75282400 1.00000 0.00000             
S     core -8.881375 -2.756477 20.858743 -1.7528240 1.00000 0.00000             
S     core -11.74186 -5.562572 20.582322 -1.7528240 1.00000 0.00000             
S     core -8.878452 -5.868970 17.868569 -1.7528240 1.00000 0.00000             
S     core -11.96938 -2.709615 17.753370 -1.7528240 1.00000 0.00000             
Pb    core -11.78768 -2.695065 20.616765 1.75282400 1.00000 0.00000             
Pb    core -8.864754 -5.648261 20.828680 1.75282400 1.00000 0.00000             
Pb    core -8.921164 -2.858818 17.839870 1.75282400 1.00000 0.00000             
Pb    core -12.23977 -5.668886 17.673002 1.75282400 1.00000 0.00000             
S     core -8.914979 -8.846672 3.0501913 -1.7528240 1.00000 0.00000             
S     core -8.709147 -11.73830 0.1501200 -1.7528240 1.00000 0.00000             
S     core -11.81122 -8.623972 0.1566120 -1.7528240 1.00000 0.00000             
Pb    core -11.81149 -8.640239 3.0604315 1.75282400 1.00000 0.00000             
Pb    core -8.719447 -11.74448 3.0539953 1.75282400 1.00000 0.00000             
Pb    core -8.908452 -8.835162 0.1240309 1.75282400 1.00000 0.00000             
S     core -8.894227 -8.847495 14.743041 -1.7528240 1.00000 0.00000             
S     core -8.709921 -11.76010 11.790906 -1.7528240 1.00000 0.00000             
S     core -11.81154 -8.645625 11.797279 -1.7528240 1.00000 0.00000             
Pb    core -11.79943 -8.602045 14.685572 1.75282400 1.00000 0.00000             
Pb    core -8.660283 -11.75420 14.679213 1.75282400 1.00000 0.00000             
Pb    core -8.909036 -8.857387 11.827082 1.75282400 1.00000 0.00000             
S     core -8.847516 14.832050 -8.847516 -1.7528240 1.00000 0.00000             
S     core -11.77076 11.891194 -8.662255 -1.7528240 1.00000 0.00000             
S     core -8.662255 11.891194 -11.77076 -1.7528240 1.00000 0.00000             
Pb    core -11.75404 14.778202 -8.607799 1.75282400 1.00000 0.00000             
Pb    core -8.868181 11.915727 -8.868181 1.75282400 1.00000 0.00000             
Pb    core -8.607799 14.778202 -11.75404 1.75282400 1.00000 0.00000             
S     core -8.655837 11.825923 23.805080 -1.7528240 1.00000 0.00000             
Pb    core -8.605190 14.711131 23.796724 1.75282400 1.00000 0.00000             
S     core -8.836688 20.923684 -2.734534 -1.7528240 1.00000 0.00000             
S     core -11.93015 17.824303 -2.704231 -1.7528240 1.00000 0.00000             
S     core -8.831411 17.946124 -5.857473 -1.7528240 1.00000 0.00000             
S     core -11.69152 20.663850 -5.546913 -1.7528240 1.00000 0.00000             
Pb    core -11.74468 20.686262 -2.679152 1.75282400 1.00000 0.00000             
Pb    core -8.882458 17.904702 -2.847530 1.75282400 1.00000 0.00000             
Pb    core -8.814543 20.904161 -5.626700 1.75282400 1.00000 0.00000             
Pb    core -12.19558 17.755356 -5.664451 1.75282400 1.00000 0.00000             
S     core -9.165681 21.211553 21.238066 -1.7528240 1.00000 0.00000             
S     core -11.69229 17.592591 20.627893 -1.7528240 1.00000 0.00000             
S     core -8.826291 17.900784 17.914588 -1.7528240 1.00000 0.00000             
S     core -11.69028 20.618163 17.612981 -1.7528240 1.00000 0.00000             
Pb    core -11.76757 20.307141 20.327440 1.75282400 1.00000 0.00000             
Pb    core -8.817636 17.663232 20.873598 1.75282400 1.00000 0.00000             
Pb    core -8.816420 20.856412 17.687865 1.75282400 1.00000 0.00000             
Pb    core -12.19544 17.709231 17.718868 1.75282400 1.00000 0.00000             
S     core -8.640071 23.835717 0.2176949 -1.7528240 1.00000 0.00000             
Pb    core -8.654798 23.827529 3.1189568 1.75282400 1.00000 0.00000             
S     core -8.642645 23.811854 11.856961 -1.7528240 1.00000 0.00000             
Pb    core -8.602491 23.789307 14.744271 1.75282400 1.00000 0.00000             
S     core -14.76550 3.2005192 -2.630220 -1.7528240 1.00000 0.00000             
S     core -14.91523 0.3711687 -5.471574 -1.7528240 1.00000 0.00000             
Pb    core -14.78122 0.3377101 -2.621991 1.75282400 1.00000 0.00000             
Pb    core -14.89834 3.2125704 -5.474073 1.75282400 1.00000 0.00000             
S     core -14.91392 0.3281240 17.461577 -1.7528240 1.00000 0.00000             
Pb    core -14.89799 3.1686716 17.473500 1.75282400 1.00000 0.00000             
S     core -14.77695 -2.575215 3.1235292 -1.7528240 1.00000 0.00000             
S     core -14.92678 -5.405260 0.2828494 -1.7528240 1.00000 0.00000             
Pb    core -14.91533 -5.419070 3.1249243 1.75282400 1.00000 0.00000             
Pb    core -14.78696 -2.556306 0.2610848 1.75282400 1.00000 0.00000             
S     core -14.82756 -2.531186 14.554540 -1.7528240 1.00000 0.00000             
S     core -14.92666 -5.426444 11.684675 -1.7528240 1.00000 0.00000             
Pb    core -14.97806 -5.388267 14.512280 1.75282400 1.00000 0.00000             
Pb    core -14.78709 -2.577938 11.715997 1.75282400 1.00000 0.00000             
S     core -14.79472 14.630522 -2.542744 -1.7528240 1.00000 0.00000             
S     core -14.89289 11.772344 -5.449254 -1.7528240 1.00000 0.00000             
Pb    core -14.75956 11.791709 -2.599989 1.75282400 1.00000 0.00000             
Pb    core -14.94012 14.599243 -5.400222 1.75282400 1.00000 0.00000             
S     core -14.88974 11.728560 17.484284 -1.7528240 1.00000 0.00000             
Pb    core -14.94062 14.554652 17.443358 1.75282400 1.00000 0.00000             
S     core -14.88147 17.526616 0.3276765 -1.7528240 1.00000 0.00000             
Pb    core -14.87253 17.526208 3.1689327 1.75282400 1.00000 0.00000             
S     core -14.88049 17.504303 11.729542 -1.7528240 1.00000 0.00000             
Pb    core -14.93684 17.451118 14.556419 1.75282400 1.00000 0.00000             
S     core 14.554540 -2.531186 -14.82756 -1.7528240 1.00000 0.00000             
S     core 11.684675 -5.426444 -14.92666 -1.7528240 1.00000 0.00000             
Pb    core 11.715997 -2.577938 -14.78709 1.75282400 1.00000 0.00000             
Pb    core 14.512280 -5.388267 -14.97806 1.75282400 1.00000 0.00000             
S     core 14.743041 -8.847495 -8.894227 -1.7528240 1.00000 0.00000             
S     core 11.790906 -11.76010 -8.709921 -1.7528240 1.00000 0.00000             
S     core 11.797279 -8.645625 -11.81154 -1.7528240 1.00000 0.00000             
Pb    core 11.827082 -8.857387 -8.909036 1.75282400 1.00000 0.00000             
Pb    core 14.679213 -11.75420 -8.660283 1.75282400 1.00000 0.00000             
Pb    core 14.685572 -8.602045 -11.79943 1.75282400 1.00000 0.00000             
S     core 11.792801 -8.722301 23.763189 -1.7528240 1.00000 0.00000             
Pb    core 14.680582 -8.684862 23.749005 1.75282400 1.00000 0.00000             
S     core 14.529449 -14.80705 -2.602903 -1.7528240 1.00000 0.00000             
S     core 11.665014 -14.88836 -5.503778 -1.7528240 1.00000 0.00000             
Pb    core 11.691079 -14.76084 -2.653983 1.75282400 1.00000 0.00000             
Pb    core 14.492466 -14.94597 -5.459895 1.75282400 1.00000 0.00000             
S     core 11.662257 -14.93843 17.428143 -1.7528240 1.00000 0.00000             
Pb    core 14.489250 -14.99937 17.381370 1.75282400 1.00000 0.00000             
S     core 11.729542 17.504303 -14.88049 -1.7528240 1.00000 0.00000             
Pb    core 14.556419 17.451118 -14.93684 1.75282400 1.00000 0.00000             
S     core 11.856961 23.811854 -8.642645 -1.7528240 1.00000 0.00000             
Pb    core 14.744271 23.789307 -8.602491 1.75282400 1.00000 0.00000             
S     core 17.461577 0.3281240 -14.91392 -1.7528240 1.00000 0.00000             
Pb    core 17.473500 3.1686716 -14.89799 1.75282400 1.00000 0.00000             
S     core 20.858743 -2.756477 -8.881375 -1.7528240 1.00000 0.00000             
S     core 17.868569 -5.868970 -8.878452 -1.7528240 1.00000 0.00000             
S     core 20.582322 -5.562572 -11.74186 -1.7528240 1.00000 0.00000             
S     core 17.753370 -2.709615 -11.96938 -1.7528240 1.00000 0.00000             
Pb    core 17.839870 -2.858818 -8.921164 1.75282400 1.00000 0.00000             
Pb    core 20.828680 -5.648261 -8.864754 1.75282400 1.00000 0.00000             
Pb    core 20.616765 -2.695065 -11.78768 1.75282400 1.00000 0.00000             
Pb    core 17.673002 -5.668886 -12.23977 1.75282400 1.00000 0.00000             
S     core 17.242568 -5.326955 26.975426 -1.7528240 1.00000 0.00000             
S     core 20.578914 -5.651066 23.706365 -1.7528240 1.00000 0.00000             
S     core 17.751387 -2.793831 23.947049 -1.7528240 1.00000 0.00000             
Pb    core 17.407718 -2.596734 26.949501 1.75282400 1.00000 0.00000             
Pb    core 20.615041 -2.787160 23.762497 1.75282400 1.00000 0.00000             
Pb    core 17.669910 -5.757154 24.204568 1.75282400 1.00000 0.00000             
S     core 20.846380 -8.871629 -2.792762 -1.7528240 1.00000 0.00000             
S     core 17.734642 -11.95436 -2.764179 -1.7528240 1.00000 0.00000             
S     core 20.569988 -11.71966 -5.610537 -1.7528240 1.00000 0.00000             
S     core 17.862678 -8.849175 -5.910548 -1.7528240 1.00000 0.00000             
Pb    core 17.827601 -8.905872 -2.899685 1.75282400 1.00000 0.00000             
Pb    core 20.598338 -11.77829 -2.742631 1.75282400 1.00000 0.00000             
Pb    core 20.822335 -8.842887 -5.683433 1.75282400 1.00000 0.00000             
Pb    core 17.659907 -12.21297 -5.723820 1.75282400 1.00000 0.00000             
S     core 21.175894 -9.266386 21.175894 -1.7528240 1.00000 0.00000             
S     core 17.545320 -11.77568 20.566913 -1.7528240 1.00000 0.00000             
S     core 20.566913 -11.77568 17.545320 -1.7528240 1.00000 0.00000             
S     core 17.859993 -8.905501 17.859993 -1.7528240 1.00000 0.00000             
Pb    core 17.628098 -8.901354 20.819455 1.75282400 1.00000 0.00000             
Pb    core 20.259660 -11.85917 20.259660 1.75282400 1.00000 0.00000             
Pb    core 20.819455 -8.901354 17.628098 1.75282400 1.00000 0.00000             
Pb    core 17.656167 -12.26709 17.656167 1.75282400 1.00000 0.00000             
S     core 17.430407 -14.91146 0.2613166 -1.7528240 1.00000 0.00000             
Pb    core 17.436159 -14.90805 3.1029758 1.75282400 1.00000 0.00000             
S     core 17.428143 -14.93843 11.662257 -1.7528240 1.00000 0.00000             
Pb    core 17.381370 -14.99937 14.489250 1.75282400 1.00000 0.00000             
S     core 17.484284 11.728560 -14.88974 -1.7528240 1.00000 0.00000             
Pb    core 17.443358 14.554652 -14.94062 1.75282400 1.00000 0.00000             
S     core 21.238066 21.211553 -9.165681 -1.7528240 1.00000 0.00000             
S     core 17.914588 17.900784 -8.826291 -1.7528240 1.00000 0.00000             
S     core 20.627893 17.592591 -11.69229 -1.7528240 1.00000 0.00000             
S     core 17.612981 20.618163 -11.69028 -1.7528240 1.00000 0.00000             
Pb    core 17.687865 20.856412 -8.816420 1.75282400 1.00000 0.00000             
Pb    core 20.873598 17.663232 -8.817636 1.75282400 1.00000 0.00000             
Pb    core 20.327440 20.307141 -11.76757 1.75282400 1.00000 0.00000             
Pb    core 17.718868 17.709231 -12.19544 1.75282400 1.00000 0.00000             
S     core 17.301400 17.218887 26.995434 -1.7528240 1.00000 0.00000             
S     core 20.635172 17.486597 23.751503 -1.7528240 1.00000 0.00000             
S     core 17.657545 20.587605 23.747461 -1.7528240 1.00000 0.00000             
Pb    core 20.367859 20.179924 23.896166 1.75282400 1.00000 0.00000             
Pb    core 17.730938 17.604022 24.238794 1.75282400 1.00000 0.00000             
S     core 17.800464 23.961821 -2.702005 -1.7528240 1.00000 0.00000             
S     core 20.634430 23.730605 -5.546734 -1.7528240 1.00000 0.00000             
S     core 17.298135 26.997350 -5.241571 -1.7528240 1.00000 0.00000             
Pb    core 17.458542 26.961849 -2.515786 1.75282400 1.00000 0.00000             
Pb    core 20.665007 23.773402 -2.684887 1.75282400 1.00000 0.00000             
Pb    core 17.724922 24.223791 -5.666900 1.75282400 1.00000 0.00000             
S     core 17.661767 23.765629 20.551337 -1.7528240 1.00000 0.00000             
S     core 20.551337 23.765629 17.661767 -1.7528240 1.00000 0.00000             
Pb    core 20.415749 23.693167 20.415749 1.75282400 1.00000 0.00000             
Pb    core 17.713785 23.652392 17.713785 1.75282400 1.00000 0.00000             
S     core 23.782403 0.1856680 -8.683414 -1.7528240 1.00000 0.00000             
Pb    core 23.787047 3.0871096 -8.689385 1.75282400 1.00000 0.00000             
S     core 26.805047 -2.577089 -2.576591 -1.7528240 1.00000 0.00000             
S     core 23.941368 -5.771743 -2.750655 -1.7528240 1.00000 0.00000             
S     core 26.976199 -5.268271 -5.279853 -1.7528240 1.00000 0.00000             
S     core 23.947394 -2.731996 -5.776215 -1.7528240 1.00000 0.00000             