# 
# Keywords:
# 
md conv
# 
# Options:
# 
vectors
1000.0 0.0 0.0
0.0 1000.0 0.0
0.0 0.0 1000.0
cartesian 
S     core 2.9408970 3.3917442 -3.046301 -1.7528240 1.00000 0.00000             
S     core 4.4577669 -2.994012 2.2282135 -1.7528240 1.00000 0.00000             
Pb    core 1.8234640 -2.495492 1.4438825 1.75282400 1.00000 0.00000             
Pb    core 2.6724069 -3.582634 10.068048 1.75282400 1.00000 0.00000             
Pb    core 2.3150593 11.845354 -2.500451 1.75282400 1.00000 0.00000             
S     core -2.613002 2.1859514 3.6179909 -1.7528240 1.00000 0.00000             
Pb    core -2.458298 -0.527153 3.3402459 1.75282400 1.00000 0.00000             
Pb    core 11.531696 3.5206726 -3.130460 1.75282400 1.00000 0.00000             
Pb    core 9.3903453 -2.938649 5.9612969 1.75282400 1.00000 0.00000             
S     core 8.7039816 3.3940421 -2.990741 -1.7528240 1.00000 0.00000             
S     core 6.3979335 0.2448472 -3.062848 -1.7528240 1.00000 0.00000             
Pb    core 5.7154851 2.9225863 -3.071395 1.75282400 1.00000 0.00000             
Pb    core 9.0537997 0.4109702 -3.064970 1.75282400 1.00000 0.00000             
S     core 9.9566147 -2.592848 3.1915249 -1.7528240 1.00000 0.00000             
S     core 8.9906929 0.2844601 -0.135308 -1.7528240 1.00000 0.00000             
Pb    core 7.1487217 -2.785361 2.7262723 1.75282400 1.00000 0.00000             
S     core 5.2395610 -3.594804 11.133626 -1.7528240 1.00000 0.00000             
S     core 5.2078000 12.079541 -2.521893 -1.7528240 1.00000 0.00000             
Pb    core 7.8992564 12.442162 -2.799221 1.75282400 1.00000 0.00000             
S     core 2.6634007 9.0085332 -2.580127 -1.7528240 1.00000 0.00000             
S     core -0.071856 6.0266346 -2.793547 -1.7528240 1.00000 0.00000             
Pb    core -0.299487 8.7662171 -2.584492 1.75282400 1.00000 0.00000             
Pb    core 0.2112551 3.2631165 -2.938038 1.75282400 1.00000 0.00000             
S     core 2.9928470 2.7658097 3.0462836 -1.7528240 1.00000 0.00000             
S     core 0.2652159 -0.470662 2.7720307 -1.7528240 1.00000 0.00000             
S     core 3.1246478 -0.163654 0.1567878 -1.7528240 1.00000 0.00000             
S     core 0.0039688 3.0490599 -0.227773 -1.7528240 1.00000 0.00000             
Pb    core 0.0636610 2.3696515 2.4681655 1.75282400 1.00000 0.00000             
Pb    core 3.5129958 -0.106335 2.8558573 1.75282400 1.00000 0.00000             
Pb    core 2.9072033 2.6377188 -0.195490 1.75282400 1.00000 0.00000             
S     core 4.4530197 0.9485150 14.249155 -1.7528240 1.00000 0.00000             
S     core 2.6368469 -1.057347 11.211485 -1.7528240 1.00000 0.00000             
S     core 1.8724449 2.7923267 12.233957 -1.7528240 1.00000 0.00000             
Pb    core 1.8282623 1.8799324 14.791409 1.75282400 1.00000 0.00000             
Pb    core 4.4854816 -1.842518 13.308589 1.75282400 1.00000 0.00000             
Pb    core 4.1832885 1.3275285 11.332131 1.75282400 1.00000 0.00000             
S     core 3.5025783 -4.561306 7.5615206 -1.7528240 1.00000 0.00000             
S     core 1.1897280 -3.760797 4.1559222 -1.7528240 1.00000 0.00000             
Pb    core 0.9202176 -4.834144 6.6145494 1.75282400 1.00000 0.00000             
Pb    core 3.9666509 -3.516034 4.9321218 1.75282400 1.00000 0.00000             
S     core 1.9992983 14.735975 3.5857849 -1.7528240 1.00000 0.00000             
S     core -0.699800 11.677226 3.2682753 -1.7528240 1.00000 0.00000             
S     core 2.2937806 11.722817 0.4083550 -1.7528240 1.00000 0.00000             
Pb    core 2.2022895 11.683586 3.2969848 1.75282400 1.00000 0.00000             
Pb    core -0.598748 11.366548 0.3951498 1.75282400 1.00000 0.00000             
S     core 2.4745840 11.759484 11.989097 -1.7528240 1.00000 0.00000             
Pb    core 2.2871860 14.602937 12.040923 1.75282400 1.00000 0.00000             
Pb    core -0.284542 11.483832 12.122298 1.75282400 1.00000 0.00000             
S     core -3.374824 7.6150439 4.0765019 -1.7528240 1.00000 0.00000             
S     core -0.367160 8.5786456 0.3626020 -1.7528240 1.00000 0.00000             
Pb    core -3.016040 4.9227639 3.8104456 1.75282400 1.00000 0.00000             
S     core -2.052185 5.0081749 12.493594 -1.7528240 1.00000 0.00000             
Pb    core -2.689305 7.5639811 12.272434 1.75282400 1.00000 0.00000             
S     core -2.136978 1.7774259 9.3324397 -1.7528240 1.00000 0.00000             
S     core -2.321923 -0.975411 6.0240976 -1.7528240 1.00000 0.00000             
Pb    core -1.431865 -0.789472 8.6792488 1.75282400 1.00000 0.00000             
Pb    core -2.277083 1.9285421 6.4963426 1.75282400 1.00000 0.00000             
S     core -0.347990 11.334397 9.2140506 -1.7528240 1.00000 0.00000             
S     core 11.311346 6.3382899 -3.107268 -1.7528240 1.00000 0.00000             
Pb    core 11.317424 9.0226514 -2.939814 1.75282400 1.00000 0.00000             
S     core 14.986889 3.8503326 2.8035759 -1.7528240 1.00000 0.00000             
S     core 12.161645 0.3977077 2.6151813 -1.7528240 1.00000 0.00000             
S     core 12.078640 3.3914254 -0.228778 -1.7528240 1.00000 0.00000             
Pb    core 12.046844 3.3056181 2.7570545 1.75282400 1.00000 0.00000             
Pb    core 12.877973 -2.123363 3.7921084 1.75282400 1.00000 0.00000             
Pb    core 14.881042 3.8787245 0.1085893 1.75282400 1.00000 0.00000             
Pb    core 11.787878 0.4213179 -0.198366 1.75282400 1.00000 0.00000             
S     core 12.091116 3.0435293 11.675131 -1.7528240 1.00000 0.00000             
Pb    core 11.995646 2.9774669 14.395497 1.75282400 1.00000 0.00000             
Pb    core 11.649266 -2.689914 9.0254337 1.75282400 1.00000 0.00000             
S     core 12.142675 -2.884261 6.3699927 -1.7528240 1.00000 0.00000             
S     core 13.082077 13.874541 1.9130785 -1.7528240 1.00000 0.00000             
Pb    core 12.333035 15.051435 4.3308837 1.75282400 1.00000 0.00000             
Pb    core 15.122261 12.315229 2.8549895 1.75282400 1.00000 0.00000             
Pb    core 11.519166 12.174339 0.4178568 1.75282400 1.00000 0.00000             
Pb    core 12.462440 12.725535 12.544695 1.75282400 1.00000 0.00000             
S     core 8.5423104 9.6513505 -2.784846 -1.7528240 1.00000 0.00000             
S     core 5.7381145 6.4009528 -2.787605 -1.7528240 1.00000 0.00000             
Pb    core 5.5207272 9.2047361 -2.620757 1.75282400 1.00000 0.00000             
Pb    core 8.4869441 6.1995519 -2.889118 1.75282400 1.00000 0.00000             
Pb    core 2.8514012 6.1448728 -2.777529 1.75282400 1.00000 0.00000             
Pb    core 3.5750394 6.9223025 15.448978 1.75282400 1.00000 0.00000             
S     core 9.0416128 3.1222289 2.8427726 -1.7528240 1.00000 0.00000             
S     core 6.4045212 0.0784252 2.8133769 -1.7528240 1.00000 0.00000             
S     core 11.823636 0.7933979 -2.936588 -1.7528240 1.00000 0.00000             
S     core 5.8682552 3.1214461 -0.018144 -1.7528240 1.00000 0.00000             
Pb    core 5.9741446 2.9515875 2.8878554 1.75282400 1.00000 0.00000             
Pb    core 9.2657947 0.1821774 2.7840638 1.75282400 1.00000 0.00000             
Pb    core 8.7819477 3.1592562 -0.095854 1.75282400 1.00000 0.00000             
Pb    core 5.9263496 -0.055512 -0.329648 1.75282400 1.00000 0.00000             
S     core 9.2868619 2.8118162 14.705497 -1.7528240 1.00000 0.00000             
S     core 6.9662658 -2.103929 14.399618 -1.7528240 1.00000 0.00000             
S     core 8.6413594 0.0185362 11.749710 -1.7528240 1.00000 0.00000             
S     core 6.2404095 3.2959218 11.672199 -1.7528240 1.00000 0.00000             
Pb    core 7.4753390 0.6314470 14.350998 1.75282400 1.00000 0.00000             
Pb    core 9.1185831 2.8437752 11.736286 1.75282400 1.00000 0.00000             
Pb    core 7.8207507 -2.657161 11.836942 1.75282400 1.00000 0.00000             
S     core 8.9393076 -2.982307 9.0493952 -1.7528240 1.00000 0.00000             
S     core 6.6680891 -3.058191 5.5770580 -1.7528240 1.00000 0.00000             
Pb    core 6.0721465 -3.298353 8.4120393 1.75282400 1.00000 0.00000             
S     core 9.5931408 14.903626 3.6765379 -1.7528240 1.00000 0.00000             
S     core 5.1608033 11.851701 3.2558048 -1.7528240 1.00000 0.00000             
S     core 9.7406896 13.554936 -1.153839 -1.7528240 1.00000 0.00000             
S     core 6.5922295 14.395326 1.3174103 -1.7528240 1.00000 0.00000             
Pb    core 4.6963115 14.882465 3.2771210 1.75282400 1.00000 0.00000             
Pb    core 7.8494579 12.643116 3.2694774 1.75282400 1.00000 0.00000             
Pb    core 9.1426054 15.291430 0.8989727 1.75282400 1.00000 0.00000             
Pb    core 5.0474248 12.191411 0.3388544 1.75282400 1.00000 0.00000             
S     core 7.6317453 11.784367 13.843677 -1.7528240 1.00000 0.00000             
S     core 10.070578 12.649649 11.140025 -1.7528240 1.00000 0.00000             
S     core 5.0944135 14.587345 12.157475 -1.7528240 1.00000 0.00000             
Pb    core 7.7584165 13.987259 12.245285 1.75282400 1.00000 0.00000             
Pb    core 4.9207332 11.727852 13.267480 1.75282400 1.00000 0.00000             
Pb    core -0.716247 14.412021 3.7942638 1.75282400 1.00000 0.00000             
S     core 2.4502313 8.7080981 3.2836052 -1.7528240 1.00000 0.00000             
S     core -0.178349 5.3687760 3.2213810 -1.7528240 1.00000 0.00000             
S     core 2.8546795 5.9920812 0.2171375 -1.7528240 1.00000 0.00000             
S     core -0.420674 11.520525 -2.358420 -1.7528240 1.00000 0.00000             
Pb    core -0.791160 8.4655787 3.3185491 1.75282400 1.00000 0.00000             
Pb    core 2.7317598 5.6688217 3.1118092 1.75282400 1.00000 0.00000             
Pb    core 2.5315000 8.8330702 0.3464954 1.75282400 1.00000 0.00000             
Pb    core -0.097832 5.7803610 0.1947660 1.75282400 1.00000 0.00000             
S     core 4.0601391 9.5691255 14.957767 -1.7528240 1.00000 0.00000             
S     core 2.1877629 4.5352842 15.460669 -1.7528240 1.00000 0.00000             
S     core 3.4339841 6.2161780 12.395490 -1.7528240 1.00000 0.00000             
S     core -0.134566 8.6573321 12.374138 -1.7528240 1.00000 0.00000             
Pb    core 4.5403561 3.9062616 13.855028 1.75282400 1.00000 0.00000             
Pb    core 2.9207282 8.9511232 12.252634 1.75282400 1.00000 0.00000             
Pb    core 0.6908161 5.3113378 12.855280 1.75282400 1.00000 0.00000             
S     core 3.3625835 2.6281396 8.8515068 -1.7528240 1.00000 0.00000             
S     core 0.5718257 -2.669071 8.2945067 -1.7528240 1.00000 0.00000             
S     core 3.4104519 -0.591934 5.6158011 -1.7528240 1.00000 0.00000             
S     core 0.5717403 1.2229980 7.0966077 -1.7528240 1.00000 0.00000             
Pb    core 0.5751559 2.5972740 9.7642309 1.75282400 1.00000 0.00000             
Pb    core 2.8769549 -0.293049 8.4011317 1.75282400 1.00000 0.00000             
Pb    core 3.0516290 2.5741734 6.0133678 1.75282400 1.00000 0.00000             
Pb    core 0.5565663 -1.223175 5.5045774 1.75282400 1.00000 0.00000             
S     core 2.3828743 14.644769 9.1357975 -1.7528240 1.00000 0.00000             
S     core -0.467482 14.255461 12.001178 -1.7528240 1.00000 0.00000             
S     core 2.4541359 11.613349 6.2083495 -1.7528240 1.00000 0.00000             
S     core -0.647441 14.265747 6.4862095 -1.7528240 1.00000 0.00000             
Pb    core 2.6029960 11.576725 9.1863509 1.75282400 1.00000 0.00000             
Pb    core 2.2866837 14.554220 6.3850144 1.75282400 1.00000 0.00000             
Pb    core -0.548051 14.221694 9.2714085 1.75282400 1.00000 0.00000             
S     core -3.080182 7.5921547 9.5674493 -1.7528240 1.00000 0.00000             
S     core -2.637065 4.7501196 6.6739144 -1.7528240 1.00000 0.00000             
Pb    core -2.536661 4.6017425 9.7241600 1.75282400 1.00000 0.00000             
Pb    core -0.502903 11.329569 6.3602930 1.75282400 1.00000 0.00000             
Pb    core -3.229126 7.5706433 6.8130663 1.75282400 1.00000 0.00000             
S     core 14.724199 9.6849273 3.2163201 -1.7528240 1.00000 0.00000             
S     core 11.653663 6.2955690 2.8352388 -1.7528240 1.00000 0.00000             
S     core 14.654566 6.5289227 0.1544297 -1.7528240 1.00000 0.00000             
S     core 11.507255 9.4490819 -0.225111 -1.7528240 1.00000 0.00000             
Pb    core 12.047807 9.0346814 2.6964629 1.75282400 1.00000 0.00000             
Pb    core 14.983706 6.7335946 2.9724140 1.75282400 1.00000 0.00000             
Pb    core 11.879580 6.3898870 -0.159073 1.75282400 1.00000 0.00000             
S     core 12.246968 5.7231594 14.623512 -1.7528240 1.00000 0.00000             
S     core 14.171553 7.3669023 10.539421 -1.7528240 1.00000 0.00000             
S     core 13.627545 10.451053 13.434741 -1.7528240 1.00000 0.00000             
Pb    core 12.324663 8.4582445 14.897182 1.75282400 1.00000 0.00000             
Pb    core 15.094989 9.7657068 11.232835 1.75282400 1.00000 0.00000             
Pb    core 12.120780 5.8040105 11.693631 1.75282400 1.00000 0.00000             
S     core 15.104302 2.8759396 8.0173431 -1.7528240 1.00000 0.00000             
S     core 12.232010 -0.046239 8.7040783 -1.7528240 1.00000 0.00000             
S     core 14.703549 -0.230593 5.4401101 -1.7528240 1.00000 0.00000             
S     core 11.994745 3.0977420 5.6799639 -1.7528240 1.00000 0.00000             
Pb    core 12.040927 2.8491947 8.8572501 1.75282400 1.00000 0.00000             
Pb    core 14.940004 0.1547965 8.1425044 1.75282400 1.00000 0.00000             
Pb    core 14.905908 2.5830468 5.1986690 1.75282400 1.00000 0.00000             
Pb    core 11.920488 0.1964976 5.8335925 1.75282400 1.00000 0.00000             
S     core 13.327660 14.473337 10.595140 -1.7528240 1.00000 0.00000             
S     core 13.968039 12.807778 5.3428042 -1.7528240 1.00000 0.00000             
S     core 11.299233 14.483538 6.9445159 -1.7528240 1.00000 0.00000             
Pb    core 10.830191 15.041443 9.6583234 1.75282400 1.00000 0.00000             
Pb    core 13.806377 13.325515 8.1242365 1.75282400 1.00000 0.00000             
Pb    core 11.080952 12.007374 5.2233011 1.75282400 1.00000 0.00000             
S     core 9.8476831 10.871712 2.4918930 -1.7528240 1.00000 0.00000             
S     core 5.9057072 6.1017323 3.0182237 -1.7528240 1.00000 0.00000             
S     core 8.7598570 6.3444214 0.0849382 -1.7528240 1.00000 0.00000             
S     core 5.8153660 9.2810898 0.3691125 -1.7528240 1.00000 0.00000             
Pb    core 5.2632726 8.9143465 3.1935144 1.75282400 1.00000 0.00000             
Pb    core 8.8003093 5.8875012 2.9593424 1.75282400 1.00000 0.00000             
Pb    core 8.6773758 9.2212111 0.1514127 1.75282400 1.00000 0.00000             
Pb    core 5.7222033 6.0065369 0.0880883 1.75282400 1.00000 0.00000             
S     core 9.6184793 8.5413465 14.618430 -1.7528240 1.00000 0.00000             
S     core 6.2670945 6.1840492 14.875344 -1.7528240 1.00000 0.00000             
S     core 9.2542974 5.9683619 11.753974 -1.7528240 1.00000 0.00000             
S     core 6.1079880 9.1428516 11.903746 -1.7528240 1.00000 0.00000             
Pb    core 6.8586063 9.1345189 14.886855 1.75282400 1.00000 0.00000             
Pb    core 9.1169810 5.6934045 14.678568 1.75282400 1.00000 0.00000             
Pb    core 8.9092467 9.7725327 12.135216 1.75282400 1.00000 0.00000             
Pb    core 6.3513220 6.2300869 11.910453 1.75282400 1.00000 0.00000             
S     core 9.0582366 2.9508210 8.7147107 -1.7528240 1.00000 0.00000             
S     core 5.8443194 -0.163486 8.6582628 -1.7528240 1.00000 0.00000             
S     core 9.1327494 0.0779962 5.9375882 -1.7528240 1.00000 0.00000             
S     core 6.0794810 2.9324322 5.8127822 -1.7528240 1.00000 0.00000             
Pb    core 6.1781951 2.9230250 8.8014482 1.75282400 1.00000 0.00000             
Pb    core 8.8217190 0.0299717 8.9647352 1.75282400 1.00000 0.00000             
Pb    core 9.0336101 3.0397420 5.8339994 1.75282400 1.00000 0.00000             
Pb    core 6.2571049 -0.097125 5.7845738 1.75282400 1.00000 0.00000             
S     core 8.0918611 14.946891 9.2891744 -1.7528240 1.00000 0.00000             
S     core 5.5759533 11.827618 8.9176571 -1.7528240 1.00000 0.00000             
S     core 8.3549107 11.961237 6.0437966 -1.7528240 1.00000 0.00000             
S     core 5.4136290 14.774824 6.0383163 -1.7528240 1.00000 0.00000             
Pb    core 5.2237783 14.681166 9.2671264 1.75282400 1.00000 0.00000             
Pb    core 8.3867858 11.957301 8.9637052 1.75282400 1.00000 0.00000             
Pb    core 8.3360922 14.924172 6.3790544 1.75282400 1.00000 0.00000             
Pb    core 5.3433752 11.787802 6.1375932 1.75282400 1.00000 0.00000             
S     core 2.8254489 8.6454172 9.1597571 -1.7528240 1.00000 0.00000             
S     core 0.2992105 5.4268248 9.2316958 -1.7528240 1.00000 0.00000             
S     core 2.9131543 5.6408187 6.0300442 -1.7528240 1.00000 0.00000             
S     core -0.362975 8.4569241 6.3524361 -1.7528240 1.00000 0.00000             
Pb    core -0.170399 8.3356186 9.4061171 1.75282400 1.00000 0.00000             
Pb    core 3.1603257 5.5592133 9.4821084 1.75282400 1.00000 0.00000             
Pb    core 2.6054430 8.5781947 6.2644522 1.75282400 1.00000 0.00000             
Pb    core 0.0705210 5.5587611 6.3369791 1.75282400 1.00000 0.00000             
S     core 14.218375 10.647184 8.7191607 -1.7528240 1.00000 0.00000             
S     core 11.842500 5.8480809 8.5998520 -1.7528240 1.00000 0.00000             
S     core 14.677021 6.8697850 5.9186571 -1.7528240 1.00000 0.00000             
S     core 11.563527 9.2710793 5.8039113 -1.7528240 1.00000 0.00000             
Pb    core 12.066679 8.6746785 8.7742697 1.75282400 1.00000 0.00000             
Pb    core 14.771753 5.5920778 8.4432883 1.75282400 1.00000 0.00000             
Pb    core 14.473884 9.6832516 6.0254092 1.75282400 1.00000 0.00000             
Pb    core 11.878110 6.0516941 5.7410096 1.75282400 1.00000 0.00000             
S     core 9.1824343 9.1985073 9.0952028 -1.7528240 1.00000 0.00000             
S     core 6.0754798 6.0277504 8.8935179 -1.7528240 1.00000 0.00000             
S     core 8.8585158 6.1464204 5.8274448 -1.7528240 1.00000 0.00000             
S     core 5.7885047 8.8904335 6.0213249 -1.7528240 1.00000 0.00000             
Pb    core 5.7117791 8.9092927 9.1214877 1.75282400 1.00000 0.00000             
Pb    core 8.9821628 5.9104546 8.9257235 1.75282400 1.00000 0.00000             
Pb    core 8.6938298 8.9814093 6.2620848 1.75282400 1.00000 0.00000             
Pb    core 5.8208970 5.8592760 6.0127930 1.75282400 1.00000 0.00000             
species   2
S      core   -1.752824                  
Pb     core    1.752824                  
buck     
S     core S     core  11413.0900     0.153000  129.1800      0.00 15.00
buck     
Pb    core Pb    core  11413.0900     0.153000  200.0000      0.00 15.00
buck     
S     core Pb    core  2845.45780     0.347536  0.000000      0.00 15.00

temperature  100.000
pressure         0.000
ensemble nvt     0.050000
timestep           0.001 ps
equilibriate      50.0000 ps
production        100.0000 ps
sample             1.0000 ps
write_MD           5.0000 ps

output his PBS_RESULTS_100.his                         
