# 
# Keywords:
# 
conp opti  
# 
# Options:
# 
cartesian 
S     core -4.789778 -4.789778 -4.789778 -1.7528240 1.00000 0.00000             
Pb    core -7.406050 -3.900127 -3.900127 1.75282400 1.00000 0.00000             
Pb    core -3.900127 -7.406050 -3.900127 1.75282400 1.00000 0.00000             
Pb    core -3.900127 -3.900127 -7.406050 1.75282400 1.00000 0.00000             
S     core -3.907650 -3.907650 19.412715 -1.7528240 1.00000 0.00000             
S     core -3.907650 -7.414141 15.906224 -1.7528240 1.00000 0.00000             
S     core -7.414141 -3.907650 15.906224 -1.7528240 1.00000 0.00000             
Pb    core -4.797720 -4.797720 16.796294 1.75282400 1.00000 0.00000             
S     core -3.907650 19.412715 -3.907650 -1.7528240 1.00000 0.00000             
S     core -7.414141 15.906224 -3.907650 -1.7528240 1.00000 0.00000             
S     core -3.907650 15.906224 -7.414141 -1.7528240 1.00000 0.00000             
Pb    core -4.797720 16.796294 -4.797720 1.75282400 1.00000 0.00000             
S     core -4.789778 16.788351 16.788351 -1.7528240 1.00000 0.00000             
Pb    core -3.900127 15.898701 19.404623 1.75282400 1.00000 0.00000             
Pb    core -3.900127 19.404623 15.898701 1.75282400 1.00000 0.00000             
Pb    core -7.406050 15.898701 15.898701 1.75282400 1.00000 0.00000             
S     core 19.412715 -3.907650 -3.907650 -1.7528240 1.00000 0.00000             
S     core 15.906224 -7.414141 -3.907650 -1.7528240 1.00000 0.00000             
S     core 15.906224 -3.907650 -7.414141 -1.7528240 1.00000 0.00000             
Pb    core 16.796294 -4.797720 -4.797720 1.75282400 1.00000 0.00000             
S     core 16.788351 -4.789778 16.788351 -1.7528240 1.00000 0.00000             
Pb    core 15.898701 -3.900127 19.404623 1.75282400 1.00000 0.00000             
Pb    core 19.404623 -3.900127 15.898701 1.75282400 1.00000 0.00000             
Pb    core 15.898701 -7.406050 15.898701 1.75282400 1.00000 0.00000             
S     core 16.788351 16.788351 -4.789778 -1.7528240 1.00000 0.00000             
Pb    core 15.898701 19.404623 -3.900127 1.75282400 1.00000 0.00000             
Pb    core 19.404623 15.898701 -3.900127 1.75282400 1.00000 0.00000             
Pb    core 15.898701 15.898701 -7.406050 1.75282400 1.00000 0.00000             
S     core 15.906224 15.906224 19.412715 -1.7528240 1.00000 0.00000             
S     core 19.412715 15.906224 15.906224 -1.7528240 1.00000 0.00000             
S     core 15.906224 19.412715 15.906224 -1.7528240 1.00000 0.00000             
Pb    core 16.796294 16.796294 16.796294 1.75282400 1.00000 0.00000             
S     core 1.7569154 1.7569154 -10.35528 -1.7528240 1.00000 0.00000             
S     core -0.944595 -0.944595 -10.51927 -1.7528240 1.00000 0.00000             
Pb    core -1.094854 1.7834628 -10.49561 1.75282400 1.00000 0.00000             
Pb    core 1.7834628 -1.094854 -10.49561 1.75282400 1.00000 0.00000             
S     core 1.7859048 -1.099121 22.499306 -1.7528240 1.00000 0.00000             
S     core -1.099121 1.7859048 22.499306 -1.7528240 1.00000 0.00000             
Pb    core 1.7555138 1.7555138 22.351965 1.75282400 1.00000 0.00000             
Pb    core -0.939399 -0.939399 22.509878 1.75282400 1.00000 0.00000             
S     core 1.6314844 -4.423271 -4.423271 -1.7528240 1.00000 0.00000             
S     core -1.184018 -7.288676 -4.205435 -1.7528240 1.00000 0.00000             
S     core -1.184018 -4.205435 -7.288676 -1.7528240 1.00000 0.00000             
Pb    core -1.264696 -4.419496 -4.419496 1.75282400 1.00000 0.00000             
Pb    core 1.6770952 -7.328003 -4.227035 1.75282400 1.00000 0.00000             
Pb    core 1.6770952 -4.227035 -7.328003 1.75282400 1.00000 0.00000             
S     core 1.6740377 -4.231678 19.331538 -1.7528240 1.00000 0.00000             
S     core 1.6740377 -7.332964 16.230252 -1.7528240 1.00000 0.00000             
S     core -1.266879 -4.416841 16.415415 -1.7528240 1.00000 0.00000             
Pb    core -1.187541 -4.200278 19.281117 1.75282400 1.00000 0.00000             
Pb    core 1.6296907 -4.425469 16.424042 1.75282400 1.00000 0.00000             
Pb    core -1.187541 -7.282543 16.198852 1.75282400 1.00000 0.00000             
S     core 1.7569154 -10.35528 1.7569154 -1.7528240 1.00000 0.00000             
S     core -0.944595 -10.51927 -0.944595 -1.7528240 1.00000 0.00000             
Pb    core -1.094854 -10.49561 1.7834628 1.75282400 1.00000 0.00000             
Pb    core 1.7834628 -10.49561 -1.094854 1.75282400 1.00000 0.00000             
S     core 1.7859048 -10.50073 13.097695 -1.7528240 1.00000 0.00000             
S     core -1.099121 -10.50073 10.212669 -1.7528240 1.00000 0.00000             
Pb    core -0.939399 -10.51130 12.937973 1.75282400 1.00000 0.00000             
Pb    core 1.7555138 -10.35339 10.243060 1.75282400 1.00000 0.00000             
S     core 1.7859048 13.097695 -10.50073 -1.7528240 1.00000 0.00000             
S     core -1.099121 10.212669 -10.50073 -1.7528240 1.00000 0.00000             
Pb    core -0.939399 12.937973 -10.51130 1.75282400 1.00000 0.00000             
Pb    core 1.7555138 10.243060 -10.35339 1.75282400 1.00000 0.00000             
S     core 1.7569154 10.241658 22.353858 -1.7528240 1.00000 0.00000             
S     core -0.944595 12.943169 22.517848 -1.7528240 1.00000 0.00000             
Pb    core 1.7834628 13.093428 22.494189 1.75282400 1.00000 0.00000             
Pb    core -1.094854 10.215111 22.494189 1.75282400 1.00000 0.00000             
S     core 1.6740377 19.331538 -4.231678 -1.7528240 1.00000 0.00000             
S     core -1.266879 16.415415 -4.416841 -1.7528240 1.00000 0.00000             
S     core 1.6740377 16.230252 -7.332964 -1.7528240 1.00000 0.00000             
Pb    core -1.187541 19.281117 -4.200278 1.75282400 1.00000 0.00000             
Pb    core 1.6296907 16.424042 -4.425469 1.75282400 1.00000 0.00000             
Pb    core -1.187541 16.198852 -7.282543 1.75282400 1.00000 0.00000             
S     core -1.184018 16.204009 19.287250 -1.7528240 1.00000 0.00000             
S     core 1.6314844 16.421845 16.421845 -1.7528240 1.00000 0.00000             
S     core -1.184018 19.287250 16.204009 -1.7528240 1.00000 0.00000             
Pb    core 1.6770952 16.225609 19.326576 1.75282400 1.00000 0.00000             
Pb    core 1.6770952 19.326576 16.225609 1.75282400 1.00000 0.00000             
Pb    core -1.264696 16.418070 16.418070 1.75282400 1.00000 0.00000             
S     core -1.099121 22.499306 1.7859048 -1.7528240 1.00000 0.00000             
S     core 1.7859048 22.499306 -1.099121 -1.7528240 1.00000 0.00000             
Pb    core 1.7555138 22.351965 1.7555138 1.75282400 1.00000 0.00000             
Pb    core -0.939399 22.509878 -0.939399 1.75282400 1.00000 0.00000             
S     core -0.944595 22.517848 12.943169 -1.7528240 1.00000 0.00000             
S     core 1.7569154 22.353858 10.241658 -1.7528240 1.00000 0.00000             
Pb    core 1.7834628 22.494189 13.093428 1.75282400 1.00000 0.00000             
Pb    core -1.094854 22.494189 10.215111 1.75282400 1.00000 0.00000             
S     core -4.423271 1.6314844 -4.423271 -1.7528240 1.00000 0.00000             
S     core -7.288676 -1.184018 -4.205435 -1.7528240 1.00000 0.00000             
S     core -4.205435 -1.184018 -7.288676 -1.7528240 1.00000 0.00000             
Pb    core -7.328003 1.6770952 -4.227035 1.75282400 1.00000 0.00000             
Pb    core -4.419496 -1.264696 -4.419496 1.75282400 1.00000 0.00000             
Pb    core -4.227035 1.6770952 -7.328003 1.75282400 1.00000 0.00000             
S     core -4.231678 1.6740377 19.331538 -1.7528240 1.00000 0.00000             
S     core -4.416841 -1.266879 16.415415 -1.7528240 1.00000 0.00000             
S     core -7.332964 1.6740377 16.230252 -1.7528240 1.00000 0.00000             
Pb    core -4.200278 -1.187541 19.281117 1.75282400 1.00000 0.00000             
Pb    core -4.425469 1.6296907 16.424042 1.75282400 1.00000 0.00000             
Pb    core -7.282543 -1.187541 16.198852 1.75282400 1.00000 0.00000             
S     core -4.423271 -4.423271 1.6314844 -1.7528240 1.00000 0.00000             
S     core -4.205435 -7.288676 -1.184018 -1.7528240 1.00000 0.00000             
S     core -7.288676 -4.205435 -1.184018 -1.7528240 1.00000 0.00000             
Pb    core -7.328003 -4.227035 1.6770952 1.75282400 1.00000 0.00000             
Pb    core -4.227035 -7.328003 1.6770952 1.75282400 1.00000 0.00000             
Pb    core -4.419496 -4.419496 -1.264696 1.75282400 1.00000 0.00000             
S     core -4.416841 -4.416841 13.265453 -1.7528240 1.00000 0.00000             
S     core -4.231678 -7.332964 10.324536 -1.7528240 1.00000 0.00000             
S     core -7.332964 -4.231678 10.324536 -1.7528240 1.00000 0.00000             
Pb    core -7.282543 -4.200278 13.186115 1.75282400 1.00000 0.00000             
Pb    core -4.200278 -7.282543 13.186115 1.75282400 1.00000 0.00000             
Pb    core -4.425469 -4.425469 10.368883 1.75282400 1.00000 0.00000             
S     core -4.416841 13.265453 -4.416841 -1.7528240 1.00000 0.00000             
S     core -7.332964 10.324536 -4.231678 -1.7528240 1.00000 0.00000             
S     core -4.231678 10.324536 -7.332964 -1.7528240 1.00000 0.00000             
Pb    core -7.282543 13.186115 -4.200278 1.75282400 1.00000 0.00000             
Pb    core -4.425469 10.368883 -4.425469 1.75282400 1.00000 0.00000             
Pb    core -4.200278 13.186115 -7.282543 1.75282400 1.00000 0.00000             
S     core -4.205435 13.182592 19.287250 -1.7528240 1.00000 0.00000             
S     core -4.423271 10.367089 16.421845 -1.7528240 1.00000 0.00000             
S     core -7.288676 13.182592 16.204009 -1.7528240 1.00000 0.00000             
Pb    core -4.227035 10.321478 19.326576 1.75282400 1.00000 0.00000             
Pb    core -4.419496 13.263270 16.418070 1.75282400 1.00000 0.00000             
Pb    core -7.328003 10.321478 16.225609 1.75282400 1.00000 0.00000             
S     core -4.231678 19.331538 1.6740377 -1.7528240 1.00000 0.00000             
S     core -7.332964 16.230252 1.6740377 -1.7528240 1.00000 0.00000             
S     core -4.416841 16.415415 -1.266879 -1.7528240 1.00000 0.00000             
Pb    core -4.425469 16.424042 1.6296907 1.75282400 1.00000 0.00000             
Pb    core -4.200278 19.281117 -1.187541 1.75282400 1.00000 0.00000             
Pb    core -7.282543 16.198852 -1.187541 1.75282400 1.00000 0.00000             
S     core -4.205435 19.287250 13.182592 -1.7528240 1.00000 0.00000             
S     core -7.288676 16.204009 13.182592 -1.7528240 1.00000 0.00000             
S     core -4.423271 16.421845 10.367089 -1.7528240 1.00000 0.00000             
Pb    core -4.419496 16.418070 13.263270 1.75282400 1.00000 0.00000             
Pb    core -4.227035 19.326576 10.321478 1.75282400 1.00000 0.00000             
Pb    core -7.328003 16.225609 10.321478 1.75282400 1.00000 0.00000             
S     core -10.35528 1.7569154 1.7569154 -1.7528240 1.00000 0.00000             
S     core -10.51927 -0.944595 -0.944595 -1.7528240 1.00000 0.00000             
Pb    core -10.49561 -1.094854 1.7834628 1.75282400 1.00000 0.00000             
Pb    core -10.49561 1.7834628 -1.094854 1.75282400 1.00000 0.00000             
S     core -10.50073 1.7859048 13.097695 -1.7528240 1.00000 0.00000             
S     core -10.50073 -1.099121 10.212669 -1.7528240 1.00000 0.00000             
Pb    core -10.51130 -0.939399 12.937973 1.75282400 1.00000 0.00000             
Pb    core -10.35339 1.7555138 10.243060 1.75282400 1.00000 0.00000             
S     core -10.50073 13.097695 1.7859048 -1.7528240 1.00000 0.00000             
S     core -10.50073 10.212669 -1.099121 -1.7528240 1.00000 0.00000             
Pb    core -10.35339 10.243060 1.7555138 1.75282400 1.00000 0.00000             
Pb    core -10.51130 12.937973 -0.939399 1.75282400 1.00000 0.00000             
S     core -10.51927 12.943169 12.943169 -1.7528240 1.00000 0.00000             
S     core -10.35528 10.241658 10.241658 -1.7528240 1.00000 0.00000             
Pb    core -10.49561 10.215111 13.093428 1.75282400 1.00000 0.00000             
Pb    core -10.49561 13.093428 10.215111 1.75282400 1.00000 0.00000             
S     core 13.097695 1.7859048 -10.50073 -1.7528240 1.00000 0.00000             
S     core 10.212669 -1.099121 -10.50073 -1.7528240 1.00000 0.00000             
Pb    core 10.243060 1.7555138 -10.35339 1.75282400 1.00000 0.00000             
Pb    core 12.937973 -0.939399 -10.51130 1.75282400 1.00000 0.00000             
S     core 12.943169 -0.944595 22.517848 -1.7528240 1.00000 0.00000             
S     core 10.241658 1.7569154 22.353858 -1.7528240 1.00000 0.00000             
Pb    core 13.093428 1.7834628 22.494189 1.75282400 1.00000 0.00000             
Pb    core 10.215111 -1.094854 22.494189 1.75282400 1.00000 0.00000             
S     core 13.265453 -4.416841 -4.416841 -1.7528240 1.00000 0.00000             
S     core 10.324536 -7.332964 -4.231678 -1.7528240 1.00000 0.00000             
S     core 10.324536 -4.231678 -7.332964 -1.7528240 1.00000 0.00000             
Pb    core 10.368883 -4.425469 -4.425469 1.75282400 1.00000 0.00000             
Pb    core 13.186115 -7.282543 -4.200278 1.75282400 1.00000 0.00000             
Pb    core 13.186115 -4.200278 -7.282543 1.75282400 1.00000 0.00000             
S     core 13.182592 -4.205435 19.287250 -1.7528240 1.00000 0.00000             
S     core 13.182592 -7.288676 16.204009 -1.7528240 1.00000 0.00000             
S     core 10.367089 -4.423271 16.421845 -1.7528240 1.00000 0.00000             
Pb    core 10.321478 -4.227035 19.326576 1.75282400 1.00000 0.00000             
Pb    core 13.263270 -4.419496 16.418070 1.75282400 1.00000 0.00000             
Pb    core 10.321478 -7.328003 16.225609 1.75282400 1.00000 0.00000             
S     core 13.097695 -10.50073 1.7859048 -1.7528240 1.00000 0.00000             
S     core 10.212669 -10.50073 -1.099121 -1.7528240 1.00000 0.00000             
Pb    core 10.243060 -10.35339 1.7555138 1.75282400 1.00000 0.00000             
Pb    core 12.937973 -10.51130 -0.939399 1.75282400 1.00000 0.00000             
S     core 12.943169 -10.51927 12.943169 -1.7528240 1.00000 0.00000             
S     core 10.241658 -10.35528 10.241658 -1.7528240 1.00000 0.00000             
Pb    core 10.215111 -10.49561 13.093428 1.75282400 1.00000 0.00000             
Pb    core 13.093428 -10.49561 10.215111 1.75282400 1.00000 0.00000             
S     core 12.943169 12.943169 -10.51927 -1.7528240 1.00000 0.00000             
S     core 10.241658 10.241658 -10.35528 -1.7528240 1.00000 0.00000             
Pb    core 10.215111 13.093428 -10.49561 1.75282400 1.00000 0.00000             
Pb    core 13.093428 10.215111 -10.49561 1.75282400 1.00000 0.00000             
S     core 13.097695 10.212669 22.499306 -1.7528240 1.00000 0.00000             
S     core 10.212669 13.097695 22.499306 -1.7528240 1.00000 0.00000             
Pb    core 12.937973 12.937973 22.509878 1.75282400 1.00000 0.00000             
Pb    core 10.243060 10.243060 22.351965 1.75282400 1.00000 0.00000             
S     core 13.182592 19.287250 -4.205435 -1.7528240 1.00000 0.00000             
S     core 10.367089 16.421845 -4.423271 -1.7528240 1.00000 0.00000             
S     core 13.182592 16.204009 -7.288676 -1.7528240 1.00000 0.00000             
Pb    core 10.321478 19.326576 -4.227035 1.75282400 1.00000 0.00000             
Pb    core 13.263270 16.418070 -4.419496 1.75282400 1.00000 0.00000             
Pb    core 10.321478 16.225609 -7.328003 1.75282400 1.00000 0.00000             
S     core 10.324536 16.230252 19.331538 -1.7528240 1.00000 0.00000             
S     core 13.265453 16.415415 16.415415 -1.7528240 1.00000 0.00000             
S     core 10.324536 19.331538 16.230252 -1.7528240 1.00000 0.00000             
Pb    core 13.186115 16.198852 19.281117 1.75282400 1.00000 0.00000             
Pb    core 13.186115 19.281117 16.198852 1.75282400 1.00000 0.00000             
Pb    core 10.368883 16.424042 16.424042 1.75282400 1.00000 0.00000             
S     core 10.241658 22.353858 1.7569154 -1.7528240 1.00000 0.00000             
S     core 12.943169 22.517848 -0.944595 -1.7528240 1.00000 0.00000             
Pb    core 13.093428 22.494189 1.7834628 1.75282400 1.00000 0.00000             
Pb    core 10.215111 22.494189 -1.094854 1.75282400 1.00000 0.00000             
S     core 10.212669 22.499306 13.097695 -1.7528240 1.00000 0.00000             
S     core 13.097695 22.499306 10.212669 -1.7528240 1.00000 0.00000             
Pb    core 12.937973 22.509878 12.937973 1.75282400 1.00000 0.00000             
Pb    core 10.243060 22.351965 10.243060 1.75282400 1.00000 0.00000             
S     core 19.331538 1.6740377 -4.231678 -1.7528240 1.00000 0.00000             
S     core 16.415415 -1.266879 -4.416841 -1.7528240 1.00000 0.00000             
S     core 16.230252 1.6740377 -7.332964 -1.7528240 1.00000 0.00000             
Pb    core 16.424042 1.6296907 -4.425469 1.75282400 1.00000 0.00000             
Pb    core 19.281117 -1.187541 -4.200278 1.75282400 1.00000 0.00000             
Pb    core 16.198852 -1.187541 -7.282543 1.75282400 1.00000 0.00000             
S     core 16.204009 -1.184018 19.287250 -1.7528240 1.00000 0.00000             
S     core 19.287250 -1.184018 16.204009 -1.7528240 1.00000 0.00000             
S     core 16.421845 1.6314844 16.421845 -1.7528240 1.00000 0.00000             
Pb    core 16.225609 1.6770952 19.326576 1.75282400 1.00000 0.00000             
Pb    core 19.326576 1.6770952 16.225609 1.75282400 1.00000 0.00000             
Pb    core 16.418070 -1.264696 16.418070 1.75282400 1.00000 0.00000             
S     core 19.331538 -4.231678 1.6740377 -1.7528240 1.00000 0.00000             
S     core 16.230252 -7.332964 1.6740377 -1.7528240 1.00000 0.00000             
S     core 16.415415 -4.416841 -1.266879 -1.7528240 1.00000 0.00000             
Pb    core 16.424042 -4.425469 1.6296907 1.75282400 1.00000 0.00000             
Pb    core 19.281117 -4.200278 -1.187541 1.75282400 1.00000 0.00000             
Pb    core 16.198852 -7.282543 -1.187541 1.75282400 1.00000 0.00000             
S     core 19.287250 -4.205435 13.182592 -1.7528240 1.00000 0.00000             
S     core 16.204009 -7.288676 13.182592 -1.7528240 1.00000 0.00000             
S     core 16.421845 -4.423271 10.367089 -1.7528240 1.00000 0.00000             
Pb    core 16.418070 -4.419496 13.263270 1.75282400 1.00000 0.00000             
Pb    core 19.326576 -4.227035 10.321478 1.75282400 1.00000 0.00000             
Pb    core 16.225609 -7.328003 10.321478 1.75282400 1.00000 0.00000             
S     core 19.287250 13.182592 -4.205435 -1.7528240 1.00000 0.00000             
S     core 16.421845 10.367089 -4.423271 -1.7528240 1.00000 0.00000             
S     core 16.204009 13.182592 -7.288676 -1.7528240 1.00000 0.00000             
Pb    core 16.418070 13.263270 -4.419496 1.75282400 1.00000 0.00000             
Pb    core 19.326576 10.321478 -4.227035 1.75282400 1.00000 0.00000             
Pb    core 16.225609 10.321478 -7.328003 1.75282400 1.00000 0.00000             
S     core 16.230252 10.324536 19.331538 -1.7528240 1.00000 0.00000             
S     core 19.331538 10.324536 16.230252 -1.7528240 1.00000 0.00000             
S     core 16.415415 13.265453 16.415415 -1.7528240 1.00000 0.00000             
Pb    core 16.198852 13.186115 19.281117 1.75282400 1.00000 0.00000             
Pb    core 19.281117 13.186115 16.198852 1.75282400 1.00000 0.00000             
Pb    core 16.424042 10.368883 16.424042 1.75282400 1.00000 0.00000             
S     core 16.421845 16.421845 1.6314844 -1.7528240 1.00000 0.00000             
S     core 19.287250 16.204009 -1.184018 -1.7528240 1.00000 0.00000             
S     core 16.204009 19.287250 -1.184018 -1.7528240 1.00000 0.00000             
Pb    core 16.225609 19.326576 1.6770952 1.75282400 1.00000 0.00000             
Pb    core 19.326576 16.225609 1.6770952 1.75282400 1.00000 0.00000             
Pb    core 16.418070 16.418070 -1.264696 1.75282400 1.00000 0.00000             
S     core 16.415415 16.415415 13.265453 -1.7528240 1.00000 0.00000             
S     core 19.331538 16.230252 10.324536 -1.7528240 1.00000 0.00000             
S     core 16.230252 19.331538 10.324536 -1.7528240 1.00000 0.00000             
Pb    core 16.198852 19.281117 13.186115 1.75282400 1.00000 0.00000             
Pb    core 19.281117 16.198852 13.186115 1.75282400 1.00000 0.00000             
Pb    core 16.424042 16.424042 10.368883 1.75282400 1.00000 0.00000             
S     core 22.499306 -1.099121 1.7859048 -1.7528240 1.00000 0.00000             
S     core 22.499306 1.7859048 -1.099121 -1.7528240 1.00000 0.00000             
Pb    core 22.351965 1.7555138 1.7555138 1.75282400 1.00000 0.00000             
Pb    core 22.509878 -0.939399 -0.939399 1.75282400 1.00000 0.00000             
S     core 22.517848 -0.944595 12.943169 -1.7528240 1.00000 0.00000             
S     core 22.353858 1.7569154 10.241658 -1.7528240 1.00000 0.00000             
Pb    core 22.494189 1.7834628 13.093428 1.75282400 1.00000 0.00000             
Pb    core 22.494189 -1.094854 10.215111 1.75282400 1.00000 0.00000             
S     core 22.353858 10.241658 1.7569154 -1.7528240 1.00000 0.00000             
S     core 22.517848 12.943169 -0.944595 -1.7528240 1.00000 0.00000             
Pb    core 22.494189 13.093428 1.7834628 1.75282400 1.00000 0.00000             
Pb    core 22.494189 10.215111 -1.094854 1.75282400 1.00000 0.00000             
S     core 22.499306 10.212669 13.097695 -1.7528240 1.00000 0.00000             
S     core 22.499306 13.097695 10.212669 -1.7528240 1.00000 0.00000             
Pb    core 22.509878 12.937973 12.937973 1.75282400 1.00000 0.00000             
Pb    core 22.351965 10.243060 10.243060 1.75282400 1.00000 0.00000             
S     core 7.4193072 1.7208470 -10.31984 -1.7528240 1.00000 0.00000             
S     core 4.5955522 -1.128099 -10.44383 -1.7528240 1.00000 0.00000             
Pb    core 4.5795771 1.7193151 -10.31668 1.75282400 1.00000 0.00000             
Pb    core 7.4010259 -1.123538 -10.43923 1.75282400 1.00000 0.00000             
S     core 7.4030216 -1.128099 22.442412 -1.7528240 1.00000 0.00000             
S     core 4.5792666 1.7208470 22.318423 -1.7528240 1.00000 0.00000             
Pb    core 7.4189967 1.7193151 22.315257 1.75282400 1.00000 0.00000             
Pb    core 4.5975479 -1.123538 22.437805 1.75282400 1.00000 0.00000             
S     core 7.4601750 -4.424966 -4.424966 -1.7528240 1.00000 0.00000             
S     core 4.5597449 -7.330214 -4.261770 -1.7528240 1.00000 0.00000             
S     core 4.5597449 -4.261770 -7.330214 -1.7528240 1.00000 0.00000             
Pb    core 4.5401061 -4.426730 -4.426730 1.75282400 1.00000 0.00000             
Pb    core 7.4407745 -7.325456 -4.257208 1.75282400 1.00000 0.00000             
Pb    core 7.4407745 -4.257208 -7.325456 1.75282400 1.00000 0.00000             
S     core 7.4388289 -4.261770 19.328788 -1.7528240 1.00000 0.00000             
S     core 7.4388289 -7.330214 16.260344 -1.7528240 1.00000 0.00000             
S     core 4.5383988 -4.424966 16.423540 -1.7528240 1.00000 0.00000             
Pb    core 4.5577993 -4.257208 19.324030 1.75282400 1.00000 0.00000             
Pb    core 7.4584677 -4.426730 16.425304 1.75282400 1.00000 0.00000             
Pb    core 4.5577993 -7.325456 16.255782 1.75282400 1.00000 0.00000             
S     core 7.4193072 -10.31984 1.7208470 -1.7528240 1.00000 0.00000             
S     core 4.5955522 -10.44383 -1.128099 -1.7528240 1.00000 0.00000             
Pb    core 4.5795771 -10.31668 1.7193151 1.75282400 1.00000 0.00000             
Pb    core 7.4010259 -10.43923 -1.123538 1.75282400 1.00000 0.00000             
S     core 7.4030216 -10.44383 13.126673 -1.7528240 1.00000 0.00000             
S     core 4.5792666 -10.31984 10.277726 -1.7528240 1.00000 0.00000             
Pb    core 4.5975479 -10.43923 13.122112 1.75282400 1.00000 0.00000             
Pb    core 7.4189967 -10.31668 10.279258 1.75282400 1.00000 0.00000             
S     core 7.4030216 13.126673 -10.44383 -1.7528240 1.00000 0.00000             
S     core 4.5792666 10.277726 -10.31984 -1.7528240 1.00000 0.00000             
Pb    core 4.5975479 13.122112 -10.43923 1.75282400 1.00000 0.00000             
Pb    core 7.4189967 10.279258 -10.31668 1.75282400 1.00000 0.00000             
S     core 7.4193072 10.277726 22.318423 -1.7528240 1.00000 0.00000             
S     core 4.5955522 13.126673 22.442412 -1.7528240 1.00000 0.00000             
Pb    core 7.4010259 13.122112 22.437805 1.75282400 1.00000 0.00000             
Pb    core 4.5795771 10.279258 22.315257 1.75282400 1.00000 0.00000             
S     core 7.4388289 19.328788 -4.261770 -1.7528240 1.00000 0.00000             
S     core 4.5383988 16.423540 -4.424966 -1.7528240 1.00000 0.00000             
S     core 7.4388289 16.260344 -7.330214 -1.7528240 1.00000 0.00000             
Pb    core 4.5577993 19.324030 -4.257208 1.75282400 1.00000 0.00000             
Pb    core 7.4584677 16.425304 -4.426730 1.75282400 1.00000 0.00000             
Pb    core 4.5577993 16.255782 -7.325456 1.75282400 1.00000 0.00000             
S     core 4.5597449 16.260344 19.328788 -1.7528240 1.00000 0.00000             
S     core 7.4601750 16.423540 16.423540 -1.7528240 1.00000 0.00000             
S     core 4.5597449 19.328788 16.260344 -1.7528240 1.00000 0.00000             
Pb    core 7.4407745 16.255782 19.324030 1.75282400 1.00000 0.00000             
Pb    core 7.4407745 19.324030 16.255782 1.75282400 1.00000 0.00000             
Pb    core 4.5401061 16.425304 16.425304 1.75282400 1.00000 0.00000             
S     core 4.5792666 22.318423 1.7208470 -1.7528240 1.00000 0.00000             
S     core 7.4030216 22.442412 -1.128099 -1.7528240 1.00000 0.00000             
Pb    core 7.4189967 22.315257 1.7193151 1.75282400 1.00000 0.00000             
Pb    core 4.5975479 22.437805 -1.123538 1.75282400 1.00000 0.00000             
S     core 4.5955522 22.442412 13.126673 -1.7528240 1.00000 0.00000             
S     core 7.4193072 22.318423 10.277726 -1.7528240 1.00000 0.00000             
Pb    core 7.4010259 22.437805 13.122112 1.75282400 1.00000 0.00000             
Pb    core 4.5795771 22.315257 10.279258 1.75282400 1.00000 0.00000             
S     core 1.7208470 7.4193072 -10.31984 -1.7528240 1.00000 0.00000             
S     core -1.128099 4.5955522 -10.44383 -1.7528240 1.00000 0.00000             
Pb    core -1.123538 7.4010259 -10.43923 1.75282400 1.00000 0.00000             
Pb    core 1.7193151 4.5795771 -10.31668 1.75282400 1.00000 0.00000             
S     core 1.7208470 4.5792666 22.318423 -1.7528240 1.00000 0.00000             
S     core -1.128099 7.4030216 22.442412 -1.7528240 1.00000 0.00000             
Pb    core 1.7193151 7.4189967 22.315257 1.75282400 1.00000 0.00000             
Pb    core -1.123538 4.5975479 22.437805 1.75282400 1.00000 0.00000             
S     core 1.5329589 1.5329589 -4.405655 -1.7528240 1.00000 0.00000             
S     core -1.460949 -1.460949 -4.419338 -1.7528240 1.00000 0.00000             
S     core 1.6448274 -1.364083 -7.483462 -1.7528240 1.00000 0.00000             
S     core -1.364083 1.6448274 -7.483462 -1.7528240 1.00000 0.00000             
Pb    core -1.419247 1.5441895 -4.445868 1.75282400 1.00000 0.00000             
Pb    core 1.5441895 -1.419247 -4.445868 1.75282400 1.00000 0.00000             
Pb    core 1.5955342 1.5955342 -7.383583 1.75282400 1.00000 0.00000             
Pb    core -1.302590 -1.302590 -7.727537 1.75282400 1.00000 0.00000             
S     core 1.5945687 1.5945687 19.383060 -1.7528240 1.00000 0.00000             
S     core -1.300250 -1.300250 19.720503 -1.7528240 1.00000 0.00000             
S     core 1.5448050 -1.419869 16.444552 -1.7528240 1.00000 0.00000             
S     core -1.419869 1.5448050 16.444552 -1.7528240 1.00000 0.00000             
Pb    core -1.366508 1.6456848 19.483016 1.75282400 1.00000 0.00000             
Pb    core 1.6456848 -1.366508 19.483016 1.75282400 1.00000 0.00000             
Pb    core 1.5330445 1.5330445 16.404842 1.75282400 1.00000 0.00000             
Pb    core -1.458868 -1.458868 16.415006 1.75282400 1.00000 0.00000             
S     core 1.5329589 -4.405655 1.5329589 -1.7528240 1.00000 0.00000             
S     core -1.364083 -7.483462 1.6448274 -1.7528240 1.00000 0.00000             
S     core 1.6448274 -7.483462 -1.364083 -1.7528240 1.00000 0.00000             
S     core -1.460949 -4.419338 -1.460949 -1.7528240 1.00000 0.00000             
Pb    core -1.419247 -4.445868 1.5441895 1.75282400 1.00000 0.00000             
Pb    core 1.5955342 -7.383583 1.5955342 1.75282400 1.00000 0.00000             
Pb    core 1.5441895 -4.445868 -1.419247 1.75282400 1.00000 0.00000             
Pb    core -1.302590 -7.727537 -1.302590 1.75282400 1.00000 0.00000             
S     core 1.5448050 -4.445978 13.418443 -1.7528240 1.00000 0.00000             
S     core -1.300250 -7.721929 13.298824 -1.7528240 1.00000 0.00000             
S     core 1.5945687 -7.384486 10.404005 -1.7528240 1.00000 0.00000             
S     core -1.419869 -4.445978 10.453768 -1.7528240 1.00000 0.00000             
Pb    core -1.458868 -4.416432 13.457441 1.75282400 1.00000 0.00000             
Pb    core 1.6456848 -7.484442 13.365082 1.75282400 1.00000 0.00000             
Pb    core 1.5330445 -4.406268 10.465529 1.75282400 1.00000 0.00000             
Pb    core -1.366508 -7.484442 10.352889 1.75282400 1.00000 0.00000             
S     core 1.7208470 -10.31984 7.4193072 -1.7528240 1.00000 0.00000             