# 
# Keywords:
# 
conp opti  
# 
# Options:
# 
cartesian 
S     core -0.206686 -2.753551 0.6955388 -1.7528240 1.00000 0.00000             
Pb    core -0.121172 -3.321617 -2.188091 1.75282400 1.00000 0.00000             
S     core -3.104542 3.0769883 -2.319200 -1.7528240 1.00000 0.00000             
Pb    core -3.238274 0.4206898 -2.420181 1.75282400 1.00000 0.00000             
S     core -3.145670 -2.609751 3.7168052 -1.7528240 1.00000 0.00000             
Pb    core -3.064167 -3.048125 0.9349798 1.75282400 1.00000 0.00000             
Pb    core -3.316474 -2.153021 12.154476 1.75282400 1.00000 0.00000             
Pb    core -3.224140 11.581616 -2.839446 1.75282400 1.00000 0.00000             
Pb    core 11.226191 -3.104032 -2.995100 1.75282400 1.00000 0.00000             
S     core 8.5603439 -2.979697 -2.511068 -1.7528240 1.00000 0.00000             
S     core 5.5288210 -6.219696 -2.460756 -1.7528240 1.00000 0.00000             
S     core 2.5566476 -2.816358 -2.399556 -1.7528240 1.00000 0.00000             
Pb    core 5.5146253 -3.556801 -2.636314 1.75282400 1.00000 0.00000             
S     core 8.7495028 -2.655933 15.086041 -1.7528240 1.00000 0.00000             
S     core 6.1358441 18.690526 -2.788187 -1.7528240 1.00000 0.00000             
S     core 2.7383907 2.8386521 -2.673408 -1.7528240 1.00000 0.00000             
S     core -0.663746 -0.408953 -2.950861 -1.7528240 1.00000 0.00000             
S     core 2.9595584 0.0789734 -5.701028 -1.7528240 1.00000 0.00000             
S     core 0.1548979 2.8379793 -5.655883 -1.7528240 1.00000 0.00000             
Pb    core -0.253699 3.0805893 -2.858301 1.75282400 1.00000 0.00000             
Pb    core 2.8476534 -0.112214 -2.736678 1.75282400 1.00000 0.00000             
Pb    core 2.9383157 2.9787707 -5.724330 1.75282400 1.00000 0.00000             
Pb    core 0.2614885 0.1372978 -5.637535 1.75282400 1.00000 0.00000             
S     core 3.3293530 0.8792664 18.282825 -1.7528240 1.00000 0.00000             
S     core 0.6076725 3.8559875 18.267134 -1.7528240 1.00000 0.00000             
Pb    core 3.4872035 3.7968439 18.077647 1.75282400 1.00000 0.00000             
Pb    core 0.6158673 1.1806823 18.459547 1.75282400 1.00000 0.00000             
S     core 2.7182400 -2.806124 3.5312456 -1.7528240 1.00000 0.00000             
S     core -0.208934 -5.771939 3.7163716 -1.7528240 1.00000 0.00000             
S     core 2.4931656 -5.923687 0.8653290 -1.7528240 1.00000 0.00000             
S     core -2.168430 -4.825986 -0.971757 -1.7528240 1.00000 0.00000             
Pb    core -0.204055 -2.846081 3.5497872 1.75282400 1.00000 0.00000             
Pb    core 2.6983423 -5.830692 3.5855533 1.75282400 1.00000 0.00000             
Pb    core 2.7421731 -3.087141 0.4263009 1.75282400 1.00000 0.00000             
Pb    core -0.262758 -5.887883 0.8360616 1.75282400 1.00000 0.00000             
S     core 3.1008911 -2.385476 15.252170 -1.7528240 1.00000 0.00000             
S     core 2.8726920 -5.635537 12.223075 -1.7528240 1.00000 0.00000             
S     core -0.406188 -2.946803 12.743145 -1.7528240 1.00000 0.00000             
Pb    core 0.4039050 -2.323284 15.323427 1.75282400 1.00000 0.00000             
Pb    core 2.9664703 -2.707305 12.354014 1.75282400 1.00000 0.00000             
Pb    core 0.1371795 -5.659101 12.016669 1.75282400 1.00000 0.00000             
S     core 2.8244797 15.210479 -2.932960 -1.7528240 1.00000 0.00000             
S     core -0.640923 12.601719 -3.210167 -1.7528240 1.00000 0.00000             
S     core 3.2850088 11.614258 -5.894308 -1.7528240 1.00000 0.00000             
Pb    core 0.1864856 15.250518 -2.838284 1.75282400 1.00000 0.00000             
Pb    core 4.1097250 12.777086 -3.448299 1.75282400 1.00000 0.00000             
Pb    core 0.6161112 11.530020 -5.629637 1.75282400 1.00000 0.00000             
S     core 3.7022964 11.961565 17.944935 -1.7528240 1.00000 0.00000             
Pb    core 0.9712749 12.113262 18.057158 1.75282400 1.00000 0.00000             
S     core 0.6011916 18.159117 3.1509601 -1.7528240 1.00000 0.00000             
S     core 3.3494088 17.912896 0.3202959 -1.7528240 1.00000 0.00000             
Pb    core 3.5817560 17.941490 3.0397300 1.75282400 1.00000 0.00000             
Pb    core 0.7230464 18.421715 0.4161379 1.75282400 1.00000 0.00000             
S     core 3.5104664 18.122245 11.560515 -1.7528240 1.00000 0.00000             
Pb    core 0.6051848 18.152484 11.558131 1.75282400 1.00000 0.00000             
S     core -2.876430 8.9802182 -2.438661 -1.7528240 1.00000 0.00000             
S     core -2.933833 6.0187965 -5.820518 -1.7528240 1.00000 0.00000             
Pb    core -3.064889 5.9465529 -3.179988 1.75282400 1.00000 0.00000             
S     core -2.563457 9.3802818 15.041862 -1.7528240 1.00000 0.00000             
S     core -3.068039 3.1777209 3.3960412 -1.7528240 1.00000 0.00000             
S     core -6.207870 0.5933306 3.8226239 -1.7528240 1.00000 0.00000             
S     core -3.790619 -0.211691 0.2938139 -1.7528240 1.00000 0.00000             
S     core -6.218851 3.3106303 0.8449268 -1.7528240 1.00000 0.00000             
Pb    core -6.010530 3.4494845 3.6739309 1.75282400 1.00000 0.00000             
Pb    core -3.232245 0.2183817 3.5048381 1.75282400 1.00000 0.00000             
Pb    core -3.223231 3.2370520 0.4363239 1.75282400 1.00000 0.00000             
Pb    core -6.364004 0.6033203 1.1038171 1.75282400 1.00000 0.00000             
S     core -2.786289 0.6957412 12.248890 -1.7528240 1.00000 0.00000             
S     core -4.849109 -0.986726 14.160340 -1.7528240 1.00000 0.00000             
S     core -5.819784 3.6966546 12.202438 -1.7528240 1.00000 0.00000             
Pb    core -3.120692 0.9595137 15.133315 1.75282400 1.00000 0.00000             
Pb    core -2.892458 3.6027278 12.257464 1.75282400 1.00000 0.00000             
Pb    core -5.910986 0.8664149 12.288341 1.75282400 1.00000 0.00000             
S     core -3.004686 -2.408448 9.4000556 -1.7528240 1.00000 0.00000             
Pb    core -3.070195 -2.519124 6.5230266 1.75282400 1.00000 0.00000             
S     core -2.697481 15.056685 3.3307965 -1.7528240 1.00000 0.00000             
S     core -5.876651 11.967945 3.3724791 -1.7528240 1.00000 0.00000             
S     core -4.049696 12.898709 -0.476444 -1.7528240 1.00000 0.00000             
Pb    core -2.936505 12.201713 3.2574487 1.75282400 1.00000 0.00000             
Pb    core -3.124943 15.285080 0.6582026 1.75282400 1.00000 0.00000             
Pb    core -6.270146 11.705047 0.6746451 1.75282400 1.00000 0.00000             
S     core -4.561759 14.034401 13.718542 -1.7528240 1.00000 0.00000             
Pb    core -2.801396 12.227411 14.784427 1.75282400 1.00000 0.00000             
Pb    core -2.646280 15.423354 12.038700 1.75282400 1.00000 0.00000             
Pb    core -5.557395 12.295905 11.848628 1.75282400 1.00000 0.00000             
S     core -2.528193 15.172902 8.9914926 -1.7528240 1.00000 0.00000             
S     core 14.642035 2.5793773 -2.764926 -1.7528240 1.00000 0.00000             
S     core 13.242148 -2.123676 -4.666017 -1.7528240 1.00000 0.00000             
S     core 11.503920 2.6356646 -5.798192 -1.7528240 1.00000 0.00000             
Pb    core 11.672357 2.6768262 -2.889993 1.75282400 1.00000 0.00000             
Pb    core 14.350165 -0.157021 -3.080456 1.75282400 1.00000 0.00000             
Pb    core 11.383786 -0.217792 -5.728478 1.75282400 1.00000 0.00000             
S     core 12.028443 3.4135031 17.928509 -1.7528240 1.00000 0.00000             
Pb    core 11.648930 0.7146195 18.122010 1.75282400 1.00000 0.00000             
S     core 14.513578 -3.206904 3.2966344 -1.7528240 1.00000 0.00000             
S     core 11.270704 -6.229485 3.4876153 -1.7528240 1.00000 0.00000             
S     core 11.902237 -3.785826 -0.003722 -1.7528240 1.00000 0.00000             
Pb    core 11.559589 -3.328666 3.2453327 1.75282400 1.00000 0.00000             
Pb    core 14.532061 -3.303175 0.5905357 1.75282400 1.00000 0.00000             
Pb    core 10.938441 -6.393502 0.7167929 1.75282400 1.00000 0.00000             
S     core 13.346889 -4.954003 13.773921 -1.7528240 1.00000 0.00000             
Pb    core 11.486085 -3.199446 14.885139 1.75282400 1.00000 0.00000             
Pb    core 14.417511 -3.416492 11.713815 1.75282400 1.00000 0.00000             
Pb    core 11.400299 -5.953466 11.995330 1.75282400 1.00000 0.00000             
S     core 13.672419 12.040497 -4.435918 -1.7528240 1.00000 0.00000             
Pb    core 13.566325 13.860225 -2.344846 1.75282400 1.00000 0.00000             
Pb    core 15.710744 10.897095 -3.046461 1.75282400 1.00000 0.00000             
Pb    core 11.881298 11.062217 -6.220705 1.75282400 1.00000 0.00000             
Pb    core 12.149220 11.942498 18.273074 1.75282400 1.00000 0.00000             
S     core 12.198023 17.691346 3.1478793 -1.7528240 1.00000 0.00000             
Pb    core 12.216583 17.591568 0.3363949 1.75282400 1.00000 0.00000             
Pb    core 11.901613 17.964949 11.470749 1.75282400 1.00000 0.00000             
S     core 14.992070 8.1977485 -2.824500 -1.7528240 1.00000 0.00000             
S     core 17.745330 -0.138483 3.0643799 -1.7528240 1.00000 0.00000             
S     core 17.802378 2.7737700 0.2628398 -1.7528240 1.00000 0.00000             
Pb    core 17.724740 2.7864832 3.1014028 1.75282400 1.00000 0.00000             
Pb    core 17.824013 0.0915192 0.3301835 1.75282400 1.00000 0.00000             
S     core 18.010919 2.6159947 11.602692 -1.7528240 1.00000 0.00000             
Pb    core 17.995960 -0.087447 11.365856 1.75282400 1.00000 0.00000             
S     core 17.824498 11.654528 2.1377108 -1.7528240 1.00000 0.00000             
Pb    core 18.662800 10.901029 -0.324442 1.75282400 1.00000 0.00000             
Pb    core 18.170424 13.087145 10.758132 1.75282400 1.00000 0.00000             
S     core 8.7135539 5.5983988 -5.804373 -1.7528240 1.00000 0.00000             
S     core 11.509834 -0.195178 -2.633005 -1.7528240 1.00000 0.00000             
S     core 5.6920103 -0.101265 -2.741176 -1.7528240 1.00000 0.00000             
S     core 8.5868078 -0.074993 -5.739193 -1.7528240 1.00000 0.00000             
S     core 5.7879966 2.8549769 -5.693710 -1.7528240 1.00000 0.00000             
Pb    core 5.7358813 2.8308097 -2.743334 1.75282400 1.00000 0.00000             
Pb    core 8.5339228 -0.211852 -2.783358 1.75282400 1.00000 0.00000             
Pb    core 8.6339128 2.7443935 -5.757354 1.75282400 1.00000 0.00000             
Pb    core 5.7583825 -0.052493 -5.670372 1.75282400 1.00000 0.00000             
S     core 8.9461906 0.6912304 18.187810 -1.7528240 1.00000 0.00000             
S     core 6.2917300 3.6754415 17.962160 -1.7528240 1.00000 0.00000             
Pb    core 9.1185292 3.5909844 17.927916 1.75282400 1.00000 0.00000             
Pb    core 6.1621866 0.8536643 18.209039 1.75282400 1.00000 0.00000             
S     core 8.6794228 -3.064292 3.3158473 -1.7528240 1.00000 0.00000             
S     core 5.5109106 -5.919862 3.6518393 -1.7528240 1.00000 0.00000             
S     core 8.3094151 -6.171060 0.8408921 -1.7528240 1.00000 0.00000             
S     core 5.5651848 -3.028837 0.4545895 -1.7528240 1.00000 0.00000             
Pb    core 5.6431182 -3.012068 3.3029598 1.75282400 1.00000 0.00000             
Pb    core 8.2943375 -6.056486 3.5540651 1.75282400 1.00000 0.00000             
Pb    core 8.3353544 -3.361221 0.2165959 1.75282400 1.00000 0.00000             
Pb    core 5.3766618 -6.284154 0.2076226 1.75282400 1.00000 0.00000             
S     core 11.591928 -2.832239 11.975566 -1.7528240 1.00000 0.00000             
S     core 8.5716878 -5.805870 12.102909 -1.7528240 1.00000 0.00000             
S     core 5.8207268 -2.768246 12.305984 -1.7528240 1.00000 0.00000             
Pb    core 5.9538237 -2.496233 15.178241 1.75282400 1.00000 0.00000             
Pb    core 8.7078479 -2.865507 12.161739 1.75282400 1.00000 0.00000             
Pb    core 5.7481521 -5.744130 12.151740 1.75282400 1.00000 0.00000             
S     core 10.849998 13.625295 -1.999501 -1.7528240 1.00000 0.00000             
S     core 6.3511870 11.372512 -2.853336 -1.7528240 1.00000 0.00000             
S     core 9.1468928 11.346060 -6.091177 -1.7528240 1.00000 0.00000             
S     core 6.3341956 14.162749 -4.806312 -1.7528240 1.00000 0.00000             
Pb    core 5.2801180 16.520022 -3.962807 1.75282400 1.00000 0.00000             
Pb    core 8.6510079 12.820594 -3.632084 1.75282400 1.00000 0.00000             
Pb    core 6.2361258 11.589358 -6.024694 1.75282400 1.00000 0.00000             
S     core 9.4125082 11.901640 18.105182 -1.7528240 1.00000 0.00000             
Pb    core 6.5450268 11.528991 17.935823 1.75282400 1.00000 0.00000             
S     core 6.4233226 17.814082 2.9872820 -1.7528240 1.00000 0.00000             
S     core 9.4918325 17.530636 0.2358187 -1.7528240 1.00000 0.00000             
Pb    core 9.2726155 17.685600 2.9805126 1.75282400 1.00000 0.00000             
Pb    core 6.5228529 18.039650 -0.202214 1.75282400 1.00000 0.00000             
S     core 9.1775900 17.977392 11.578535 -1.7528240 1.00000 0.00000             
Pb    core 6.3131454 18.065143 11.570655 1.75282400 1.00000 0.00000             
S     core 2.8667527 8.7677219 -2.818674 -1.7528240 1.00000 0.00000             
S     core -0.096213 5.8625605 -2.667204 -1.7528240 1.00000 0.00000             
S     core 2.9570676 5.8120789 -5.765070 -1.7528240 1.00000 0.00000             
S     core 0.3340243 8.8764551 -5.749647 -1.7528240 1.00000 0.00000             
Pb    core -0.079644 8.6094580 -2.992288 1.75282400 1.00000 0.00000             
Pb    core 2.8342926 5.8397445 -2.841803 1.75282400 1.00000 0.00000             
Pb    core 3.1537818 8.6983959 -5.752994 1.75282400 1.00000 0.00000             
Pb    core -0.238377 5.8849372 -6.040164 1.75282400 1.00000 0.00000             
S     core 3.4981970 6.5747086 17.905917 -1.7528240 1.00000 0.00000             
S     core 0.7264638 9.4058929 18.308150 -1.7528240 1.00000 0.00000             
Pb    core 3.6067526 9.2573581 18.707924 1.75282400 1.00000 0.00000             
Pb    core 0.6323521 6.6536936 18.102051 1.75282400 1.00000 0.00000             
S     core 2.8623466 3.0741341 3.2580697 -1.7528240 1.00000 0.00000             
S     core -0.246772 0.2015231 3.3933835 -1.7528240 1.00000 0.00000             
S     core 2.7406674 0.0722706 0.3457176 -1.7528240 1.00000 0.00000             
S     core -0.243813 2.9124248 0.3226671 -1.7528240 1.00000 0.00000             
Pb    core -0.079047 3.1384162 3.2638122 1.75282400 1.00000 0.00000             
Pb    core 2.8015998 0.0841138 3.2684122 1.75282400 1.00000 0.00000             
Pb    core 2.8124103 2.9876004 0.2276319 1.75282400 1.00000 0.00000             
Pb    core -0.103051 0.0410799 0.3761796 1.75282400 1.00000 0.00000             
S     core 3.1254816 3.3882864 15.146878 -1.7528240 1.00000 0.00000             
S     core -0.221901 0.3182339 15.866264 -1.7528240 1.00000 0.00000             
S     core 2.8728897 0.2701183 12.405761 -1.7528240 1.00000 0.00000             
S     core 0.1496977 3.4082776 12.316792 -1.7528240 1.00000 0.00000             
Pb    core 0.1526473 3.6015533 15.325803 1.75282400 1.00000 0.00000             
Pb    core 3.2057830 0.5193007 15.368029 1.75282400 1.00000 0.00000             
Pb    core 3.0913830 3.3366331 12.190722 1.75282400 1.00000 0.00000             
Pb    core 0.0185314 0.5452051 12.228715 1.75282400 1.00000 0.00000             
S     core 2.7713603 -2.689179 9.4673455 -1.7528240 1.00000 0.00000             
S     core -0.016082 -5.660470 9.3344787 -1.7528240 1.00000 0.00000             
S     core 2.7458320 -5.716474 6.5187538 -1.7528240 1.00000 0.00000             
S     core -0.197706 -2.743876 6.4972420 -1.7528240 1.00000 0.00000             
Pb    core -0.182861 -2.690733 9.3542828 1.75282400 1.00000 0.00000             
Pb    core 2.8457565 -5.667180 9.3054287 1.75282400 1.00000 0.00000             
Pb    core 2.7827723 -2.747759 6.3857484 1.75282400 1.00000 0.00000             
Pb    core -0.082350 -5.724912 6.4778507 1.75282400 1.00000 0.00000             
S     core 3.1529430 14.980489 2.9086114 -1.7528240 1.00000 0.00000             
S     core -0.022032 12.253502 2.6446092 -1.7528240 1.00000 0.00000             
S     core 3.0895121 12.202689 -0.115607 -1.7528240 1.00000 0.00000             
S     core -0.808796 16.222590 -0.473485 -1.7528240 1.00000 0.00000             
Pb    core 0.2254400 15.270546 3.0627565 1.75282400 1.00000 0.00000             
Pb    core 3.1417683 12.075677 2.8525315 1.75282400 1.00000 0.00000             
Pb    core 3.5985007 15.171890 -0.146552 1.75282400 1.00000 0.00000             
Pb    core 0.3454073 11.879985 -0.315063 1.75282400 1.00000 0.00000             
S     core 3.4881629 15.101456 14.750341 -1.7528240 1.00000 0.00000             
S     core 0.1511552 12.631650 15.416643 -1.7528240 1.00000 0.00000             
S     core 3.2603961 12.148181 11.925168 -1.7528240 1.00000 0.00000             
S     core -1.091516 17.333024 13.552638 -1.7528240 1.00000 0.00000             
Pb    core 0.6809452 15.533267 14.603514 1.75282400 1.00000 0.00000             
Pb    core 3.2775600 12.292622 15.012839 1.75282400 1.00000 0.00000             
Pb    core 3.4012031 15.211691 11.835803 1.75282400 1.00000 0.00000             
Pb    core 0.3238904 12.261732 11.842049 1.75282400 1.00000 0.00000             
S     core 0.6808316 18.163559 8.7173728 -1.7528240 1.00000 0.00000             
S     core 3.5249092 17.963915 5.8795916 -1.7528240 1.00000 0.00000             
Pb    core 3.4954156 18.026621 8.7419223 1.75282400 1.00000 0.00000             
Pb    core 0.6862658 18.156337 5.9459502 1.75282400 1.00000 0.00000             
S     core -2.897999 9.2614814 3.1618305 -1.7528240 1.00000 0.00000             
S     core -5.902453 6.2696355 3.5290919 -1.7528240 1.00000 0.00000             
S     core -3.136533 6.0560511 0.4893708 -1.7528240 1.00000 0.00000             
S     core -6.034410 8.9937269 0.6287134 -1.7528240 1.00000 0.00000             
Pb    core -5.847372 9.0861889 3.4648328 1.75282400 1.00000 0.00000             
Pb    core -2.928051 6.1855241 3.3511798 1.75282400 1.00000 0.00000             
Pb    core -3.066441 8.8153120 0.2747032 1.75282400 1.00000 0.00000             
Pb    core -6.032583 6.1300351 0.6211925 1.75282400 1.00000 0.00000             
S     core -2.502694 12.181253 11.917040 -1.7528240 1.00000 0.00000             
S     core -2.678652 3.7005557 15.185046 -1.7528240 1.00000 0.00000             
S     core -2.834215 6.4529507 12.198725 -1.7528240 1.00000 0.00000             
S     core -5.694958 9.3738050 11.971448 -1.7528240 1.00000 0.00000             
Pb    core -2.671787 6.5670878 15.079222 1.75282400 1.00000 0.00000             
Pb    core -2.773377 9.3649991 12.096639 1.75282400 1.00000 0.00000             
Pb    core -5.814158 6.5637107 12.076963 1.75282400 1.00000 0.00000             
S     core -2.857728 3.4499597 9.2942888 -1.7528240 1.00000 0.00000             
S     core -5.958839 0.7488503 9.4617303 -1.7528240 1.00000 0.00000             
S     core -3.131313 0.3713840 6.4611937 -1.7528240 1.00000 0.00000             
S     core -5.913544 3.5123537 6.5109947 -1.7528240 1.00000 0.00000             
Pb    core -5.854609 3.5969771 9.3608478 1.75282400 1.00000 0.00000             
Pb    core -3.039028 0.5125706 9.3359152 1.75282400 1.00000 0.00000             
Pb    core -2.935719 3.3400285 6.3401242 1.75282400 1.00000 0.00000             
Pb    core -6.071124 0.6750916 6.6277526 1.75282400 1.00000 0.00000             
S     core 0.5626660 15.077753 11.769192 -1.7528240 1.00000 0.00000             
S     core -5.709352 12.130201 9.0049179 -1.7528240 1.00000 0.00000             
S     core -2.810443 12.235220 6.1019022 -1.7528240 1.00000 0.00000             
Pb    core -2.743191 12.331361 9.0780356 1.75282400 1.00000 0.00000             
Pb    core -2.573033 15.149866 6.2012855 1.75282400 1.00000 0.00000             
Pb    core -5.772963 12.073685 6.2307368 1.75282400 1.00000 0.00000             
S     core 14.565642 11.517080 -0.266265 -1.7528240 1.00000 0.00000             
S     core 11.870283 5.5255909 -2.952714 -1.7528240 1.00000 0.00000             
S     core 11.745880 8.2745020 -5.963127 -1.7528240 1.00000 0.00000             
Pb    core 12.047627 8.4448771 -3.070137 1.75282400 1.00000 0.00000             
Pb    core 14.729252 5.4159907 -2.851970 1.75282400 1.00000 0.00000             
Pb    core 11.528248 5.4809328 -5.915292 1.75282400 1.00000 0.00000             
S     core 12.385987 9.1654472 17.824156 -1.7528240 1.00000 0.00000             
Pb    core 12.207219 6.3168658 17.843466 1.75282400 1.00000 0.00000             
S     core 14.761891 2.5757984 2.9956768 -1.7528240 1.00000 0.00000             
S     core 11.811760 -0.326292 3.0470926 -1.7528240 1.00000 0.00000             
S     core 15.162340 -0.712135 -0.177596 -1.7528240 1.00000 0.00000             
S     core 11.818619 2.6585851 0.1628753 -1.7528240 1.00000 0.00000             
Pb    core 11.794343 2.7774476 3.0583294 1.75282400 1.00000 0.00000             
Pb    core 14.792427 -0.321194 3.1004035 1.75282400 1.00000 0.00000             
Pb    core 14.800611 2.6799268 0.0422158 1.75282400 1.00000 0.00000             
Pb    core 11.500709 -0.251722 0.1597124 1.75282400 1.00000 0.00000             
S     core 14.943359 2.8243173 14.727821 -1.7528240 1.00000 0.00000             
S     core 12.230708 -0.422602 15.587854 -1.7528240 1.00000 0.00000             
S     core 15.297334 -0.582560 12.200570 -1.7528240 1.00000 0.00000             
S     core 12.099021 2.8334327 12.096567 -1.7528240 1.00000 0.00000             
Pb    core 12.124435 3.4180769 15.011774 1.75282400 1.00000 0.00000             
Pb    core 14.815405 0.1622472 14.836448 1.75282400 1.00000 0.00000             
Pb    core 15.068321 2.7628463 11.826505 1.75282400 1.00000 0.00000             
Pb    core 11.777940 -0.011559 11.960330 1.75282400 1.00000 0.00000             
S     core 14.557722 -3.100026 8.9520454 -1.7528240 1.00000 0.00000             
S     core 11.367322 -5.994342 9.1708115 -1.7528240 1.00000 0.00000             
S     core 11.629059 -3.174129 6.1780052 -1.7528240 1.00000 0.00000             
Pb    core 11.624441 -3.073155 9.0554801 1.75282400 1.00000 0.00000             
Pb    core 14.498566 -3.158341 6.1160781 1.75282400 1.00000 0.00000             
Pb    core 11.274721 -6.131628 6.3135621 1.75282400 1.00000 0.00000             
S     core 15.684395 14.288209 3.5437302 -1.7528240 1.00000 0.00000             
S     core 12.047662 11.797539 2.8911502 -1.7528240 1.00000 0.00000             
S     core 17.421355 12.775277 -1.833564 -1.7528240 1.00000 0.00000             
S     core 13.762550 15.303540 0.1090708 -1.7528240 1.00000 0.00000             
Pb    core 12.645886 14.790257 2.9171124 1.75282400 1.00000 0.00000             
Pb    core 14.887388 11.441393 2.7120066 1.75282400 1.00000 0.00000             
Pb    core 16.234180 13.870341 0.5625385 1.75282400 1.00000 0.00000             
Pb    core 11.715048 11.596769 -0.103734 1.75282400 1.00000 0.00000             
S     core 13.681507 13.818550 17.015896 -1.7528240 1.00000 0.00000             
S     core 16.911836 13.858441 13.016128 -1.7528240 1.00000 0.00000             
S     core 12.284762 15.222797 11.976675 -1.7528240 1.00000 0.00000             
Pb    core 11.976470 14.456057 14.883886 1.75282400 1.00000 0.00000             
Pb    core 15.743656 13.164033 15.358426 1.75282400 1.00000 0.00000             
Pb    core 14.566766 13.602179 11.536161 1.75282400 1.00000 0.00000             
Pb    core 11.698577 11.254290 11.993360 1.75282400 1.00000 0.00000             
Pb    core 12.038387 17.809186 5.8900986 1.75282400 1.00000 0.00000             
S     core 17.665636 5.5826892 3.0859058 -1.7528240 1.00000 0.00000             
S     core 18.113282 8.3162819 0.2398869 -1.7528240 1.00000 0.00000             
Pb    core 18.291437 8.5335726 3.3227887 1.75282400 1.00000 0.00000             
Pb    core 17.812110 5.5993306 0.2842155 1.75282400 1.00000 0.00000             
S     core 17.358310 7.3067897 13.603368 -1.7528240 1.00000 0.00000             
S     core 17.813253 10.473250 10.103694 -1.7528240 1.00000 0.00000             
Pb    core 18.162647 5.4499942 11.709382 1.75282400 1.00000 0.00000             
S     core 17.860932 -0.125977 8.6839364 -1.7528240 1.00000 0.00000             
S     core 17.786562 2.6877464 5.9363892 -1.7528240 1.00000 0.00000             
Pb    core 17.886442 2.8123924 8.7357897 1.75282400 1.00000 0.00000             
Pb    core 17.776857 -0.126031 5.8805435 1.75282400 1.00000 0.00000             
S     core 15.934572 13.921933 8.9754885 -1.7528240 1.00000 0.00000             
Pb    core 17.546181 12.415127 4.6720668 1.75282400 1.00000 0.00000             
S     core 9.1202244 8.4180672 -2.885273 -1.7528240 1.00000 0.00000             
S     core 5.8232741 5.7523128 -2.779674 -1.7528240 1.00000 0.00000             
S     core 8.7158117 2.7470607 -2.732136 -1.7528240 1.00000 0.00000             
S     core 6.0031554 8.6081415 -5.860300 -1.7528240 1.00000 0.00000             
Pb    core 6.0183308 8.6752471 -2.886917 1.75282400 1.00000 0.00000             
Pb    core 8.8177487 5.6368432 -2.837005 1.75282400 1.00000 0.00000             
Pb    core 8.8572048 8.5414229 -5.747527 1.75282400 1.00000 0.00000             
Pb    core 5.8476087 5.7441043 -5.807737 1.75282400 1.00000 0.00000             
S     core 6.3310169 9.1095022 19.439213 -1.7528240 1.00000 0.00000             
S     core 9.4150459 6.3522761 17.951899 -1.7528240 1.00000 0.00000             
S     core 7.7509812 9.1671667 16.361383 -1.7528240 1.00000 0.00000             
Pb    core 9.2419260 9.1186950 18.683724 1.75282400 1.00000 0.00000             
Pb    core 6.4763271 6.7276152 17.842813 1.75282400 1.00000 0.00000             
S     core 8.8534381 2.8372304 3.1718838 -1.7528240 1.00000 0.00000             
S     core 5.7630803 0.0075597 3.3160168 -1.7528240 1.00000 0.00000             
S     core 8.6806733 -0.201949 0.3248538 -1.7528240 1.00000 0.00000             
S     core 5.7951671 2.8830664 0.2459972 -1.7528240 1.00000 0.00000             
Pb    core 5.8481861 2.9537893 3.1565621 1.75282400 1.00000 0.00000             
Pb    core 8.6911067 -0.133057 3.1908954 1.75282400 1.00000 0.00000             
Pb    core 8.7578311 2.7732097 0.1710348 1.75282400 1.00000 0.00000             
Pb    core 5.6959516 -0.145882 0.2042119 1.75282400 1.00000 0.00000             
S     core 9.2562195 3.1099039 15.034497 -1.7528240 1.00000 0.00000             
S     core 6.0706686 0.3912178 15.281353 -1.7528240 1.00000 0.00000             
S     core 8.9230472 0.1592761 12.205897 -1.7528240 1.00000 0.00000             
S     core 6.0581039 3.1931745 12.118493 -1.7528240 1.00000 0.00000             
Pb    core 6.2613872 3.4470839 15.041917 1.75282400 1.00000 0.00000             
Pb    core 9.0066056 0.1964376 15.231066 1.75282400 1.00000 0.00000             
Pb    core 9.0822044 3.1877305 12.114680 1.75282400 1.00000 0.00000             
Pb    core 5.9679517 0.2776822 12.229358 1.75282400 1.00000 0.00000             
S     core 8.6869070 -2.851237 9.2129179 -1.7528240 1.00000 0.00000             
S     core 5.6661939 -5.732500 9.3344640 -1.7528240 1.00000 0.00000             
S     core 8.4633822 -5.924582 6.4178215 -1.7528240 1.00000 0.00000             
S     core 5.7173223 -2.830359 6.3864945 -1.7528240 1.00000 0.00000             
Pb    core 5.7651602 -2.758516 9.2767685 1.75282400 1.00000 0.00000             
Pb    core 8.5256953 -5.841172 9.2428583 1.75282400 1.00000 0.00000             
Pb    core 8.6335392 -2.955641 6.2297522 1.75282400 1.00000 0.00000             
Pb    core 5.5946458 -5.817534 6.4293563 1.75282400 1.00000 0.00000             
S     core 9.3902826 14.745001 2.9857854 -1.7528240 1.00000 0.00000             
S     core 6.0693284 11.921905 3.0167847 -1.7528240 1.00000 0.00000             
S     core 8.9568768 11.697785 0.2868469 -1.7528240 1.00000 0.00000             
S     core 6.3154479 14.843423 0.0349577 -1.7528240 1.00000 0.00000             
Pb    core 6.3046574 14.882390 2.8733979 1.75282400 1.00000 0.00000             
Pb    core 9.0744300 11.834335 3.0318819 1.75282400 1.00000 0.00000             
Pb    core 9.1138012 14.702100 -0.072166 1.75282400 1.00000 0.00000             
Pb    core 6.1517084 11.842905 -0.080744 1.75282400 1.00000 0.00000             
S     core 9.2176679 14.512205 14.709092 -1.7528240 1.00000 0.00000             
S     core 6.1486250 12.067756 14.852979 -1.7528240 1.00000 0.00000             
S     core 9.0302348 11.977259 11.706679 -1.7528240 1.00000 0.00000             
S     core 6.3107724 15.135701 11.847224 -1.7528240 1.00000 0.00000             
Pb    core 6.3337802 14.897917 14.775827 1.75282400 1.00000 0.00000             
Pb    core 8.9455767 11.642238 15.195457 1.75282400 1.00000 0.00000             
Pb    core 9.1881748 14.963661 11.891442 1.75282400 1.00000 0.00000             
Pb    core 6.1570483 12.155252 11.850004 1.75282400 1.00000 0.00000             
S     core 6.3710926 17.943152 8.7216292 -1.7528240 1.00000 0.00000             
S     core 9.2356061 17.818810 5.8995119 -1.7528240 1.00000 0.00000             
Pb    core 9.1850138 17.840260 8.7168744 1.75282400 1.00000 0.00000             
Pb    core 6.3754457 17.893846 5.8336339 1.75282400 1.00000 0.00000             
S     core 2.9985698 9.0952632 2.9975741 -1.7528240 1.00000 0.00000             
S     core -0.019075 6.1367838 3.1927515 -1.7528240 1.00000 0.00000             
S     core 2.8564723 5.9410758 0.2096033 -1.7528240 1.00000 0.00000             
S     core -0.071237 9.1315630 0.0872012 -1.7528240 1.00000 0.00000             