# 
# Keywords:
# 
conp opti  
# 
# Options:
# 
cartesian 
S     core 2.2996222 3.4008001 3.5457781 -1.7528240 1.00000 0.00000             
S     core 10.215859 3.8973188 3.3573887 -1.7528240 1.00000 0.00000             
Pb    core 4.9182372 3.4354306 2.9279110 1.75282400 1.00000 0.00000             
S     core 2.2693692 8.6035497 3.5976728 -1.7528240 1.00000 0.00000             
S     core 3.4532110 3.1671294 8.9149291 -1.7528240 1.00000 0.00000             
Pb    core 2.9651776 3.0637165 6.2504565 1.75282400 1.00000 0.00000             
S     core 10.190822 8.2029716 3.4003355 -1.7528240 1.00000 0.00000             
S     core 5.8746476 6.0319147 2.6830886 -1.7528240 1.00000 0.00000             
Pb    core 4.8881381 8.6117020 2.9795417 1.75282400 1.00000 0.00000             
Pb    core 8.6284606 6.0482112 2.6546507 1.75282400 1.00000 0.00000             
S     core 8.9130789 3.2226332 8.3528424 -1.7528240 1.00000 0.00000             
S     core 5.8914929 3.0597273 5.5411884 -1.7528240 1.00000 0.00000             
Pb    core 6.1867425 3.0742740 8.7127051 1.75282400 1.00000 0.00000             
Pb    core 8.8084525 3.0624670 5.6160946 1.75282400 1.00000 0.00000             
S     core 3.4207855 8.7434773 8.9705502 -1.7528240 1.00000 0.00000             
S     core 2.9382812 5.9796044 6.2156835 -1.7528240 1.00000 0.00000             
Pb    core 3.3000353 5.9524385 9.1501107 1.75282400 1.00000 0.00000             
Pb    core 2.9312736 8.8943343 6.3086139 1.75282400 1.00000 0.00000             
Pb    core 1.5168539 5.9955958 3.7838064 1.75282400 1.00000 0.00000             
Pb    core 11.470825 6.0465101 4.4821939 1.75282400 1.00000 0.00000             
S     core 8.8808644 8.7626872 8.4081017 -1.7528240 1.00000 0.00000             
S     core 6.1405860 5.9726303 8.7817041 -1.7528240 1.00000 0.00000             
S     core 8.8599129 6.0190916 5.7089780 -1.7528240 1.00000 0.00000             
S     core 5.8572624 8.9464969 5.5999059 -1.7528240 1.00000 0.00000             
Pb    core 6.1530290 8.8721271 8.7705358 1.75282400 1.00000 0.00000             
Pb    core 8.9656229 5.9904210 8.6449885 1.75282400 1.00000 0.00000             
Pb    core 8.7740653 8.9761823 5.6750810 1.75282400 1.00000 0.00000             
Pb    core 5.8940000 6.0000000 5.8940000 1.75282400 1.00000 0.00000             
species   2
S      core   -1.752824                  
Pb     core    1.752824                  
buck     
S     core S     core  11413.0900     0.153000  129.1800      0.00 15.00
buck     
Pb    core Pb    core  11413.0900     0.153000  200.0000      0.00 15.00
buck     
S     core Pb    core  2845.45780     0.347536  0.000000      0.00 15.00
dump Results\PbS_COMP_SPHERE_04.gin                              
output frc Results\PbS_COMP_SPHERE_04.frc                              
