# 
# Keywords:
# 
conp opti  
# 
# Options:
# 
cartesian 
S     core 0.9661119 0.9661119 0.9430228 -1.7528240 1.00000 0.00000             
Pb    core -1.568560 1.8655962 1.8425071 1.75282400 1.00000 0.00000             
Pb    core 1.8655962 -1.568560 1.8425071 1.75282400 1.00000 0.00000             
Pb    core 1.8655962 1.8655962 -1.591649 1.75282400 1.00000 0.00000             
S     core 1.8589487 1.8589487 13.576330 -1.7528240 1.00000 0.00000             
S     core 1.8589487 -1.576330 10.141051 -1.7528240 1.00000 0.00000             
S     core -1.576330 1.8589487 10.141051 -1.7528240 1.00000 0.00000             
Pb    core 0.9557274 0.9557274 11.044272 1.75282400 1.00000 0.00000             
S     core 1.8589487 13.599419 1.8358596 -1.7528240 1.00000 0.00000             
S     core -1.576330 10.164140 1.8358596 -1.7528240 1.00000 0.00000             
S     core 1.8589487 10.164140 -1.599419 -1.7528240 1.00000 0.00000             
Pb    core 0.9557274 11.067361 0.9326383 1.75282400 1.00000 0.00000             
S     core 0.9661119 11.056977 11.033888 -1.7528240 1.00000 0.00000             
Pb    core 1.8655962 10.157492 13.568560 1.75282400 1.00000 0.00000             
Pb    core 1.8655962 13.591649 10.134403 1.75282400 1.00000 0.00000             
Pb    core -1.568560 10.157492 10.134403 1.75282400 1.00000 0.00000             
S     core 13.599419 1.8589487 1.8358596 -1.7528240 1.00000 0.00000             
S     core 10.164140 -1.576330 1.8358596 -1.7528240 1.00000 0.00000             
S     core 10.164140 1.8589487 -1.599419 -1.7528240 1.00000 0.00000             
Pb    core 11.067361 0.9557274 0.9326383 1.75282400 1.00000 0.00000             
S     core 11.056977 0.9661119 11.033888 -1.7528240 1.00000 0.00000             
Pb    core 10.157492 1.8655962 13.568560 1.75282400 1.00000 0.00000             
Pb    core 13.591649 1.8655962 10.134403 1.75282400 1.00000 0.00000             
Pb    core 10.157492 -1.568560 10.134403 1.75282400 1.00000 0.00000             
S     core 11.056977 11.056977 0.9430228 -1.7528240 1.00000 0.00000             
Pb    core 10.157492 13.591649 1.8425071 1.75282400 1.00000 0.00000             
Pb    core 13.591649 10.157492 1.8425071 1.75282400 1.00000 0.00000             
Pb    core 10.157492 10.157492 -1.591649 1.75282400 1.00000 0.00000             
S     core 10.164140 10.164140 13.576330 -1.7528240 1.00000 0.00000             
S     core 13.599419 10.164140 10.141051 -1.7528240 1.00000 0.00000             
S     core 10.164140 13.599419 10.141051 -1.7528240 1.00000 0.00000             
Pb    core 11.067361 11.067361 11.044272 1.75282400 1.00000 0.00000             
S     core 7.4150357 1.4849754 1.4618863 -1.7528240 1.00000 0.00000             
S     core 4.5739840 -1.433941 1.7034635 -1.7528240 1.00000 0.00000             
S     core 4.5739840 1.7265526 -1.457030 -1.7528240 1.00000 0.00000             
Pb    core 4.6109421 1.4828266 1.4597375 1.75282400 1.00000 0.00000             
Pb    core 7.4534575 -1.428816 1.7080536 1.75282400 1.00000 0.00000             
Pb    core 7.4534575 1.7311427 -1.451905 1.75282400 1.00000 0.00000             
S     core 7.4491050 1.7265526 13.433941 -1.7528240 1.00000 0.00000             
S     core 7.4491050 -1.433941 10.273447 -1.7528240 1.00000 0.00000             
S     core 4.6080533 1.4849754 10.515024 -1.7528240 1.00000 0.00000             
Pb    core 4.5696315 1.7311427 13.428816 1.75282400 1.00000 0.00000             
Pb    core 7.4121469 1.4828266 10.517173 1.75282400 1.00000 0.00000             
Pb    core 4.5696315 -1.428816 10.268857 1.75282400 1.00000 0.00000             
S     core 7.4491050 13.457030 1.7034635 -1.7528240 1.00000 0.00000             
S     core 4.6080533 10.538113 1.4618863 -1.7528240 1.00000 0.00000             
S     core 7.4491050 10.296536 -1.457030 -1.7528240 1.00000 0.00000             
Pb    core 4.5696315 13.451905 1.7080536 1.75282400 1.00000 0.00000             
Pb    core 7.4121469 10.540262 1.4597375 1.75282400 1.00000 0.00000             
Pb    core 4.5696315 10.291946 -1.451905 1.75282400 1.00000 0.00000             
S     core 4.5739840 10.296536 13.433941 -1.7528240 1.00000 0.00000             
S     core 7.4150357 10.538113 10.515024 -1.7528240 1.00000 0.00000             
S     core 4.5739840 13.457030 10.273447 -1.7528240 1.00000 0.00000             
Pb    core 7.4534575 10.291946 13.428816 1.75282400 1.00000 0.00000             
Pb    core 7.4534575 13.451905 10.268857 1.75282400 1.00000 0.00000             
Pb    core 4.6109421 10.540262 10.517173 1.75282400 1.00000 0.00000             
S     core 1.4849754 7.4150357 1.4618863 -1.7528240 1.00000 0.00000             
S     core -1.433941 4.5739840 1.7034635 -1.7528240 1.00000 0.00000             
S     core 1.7265526 4.5739840 -1.457030 -1.7528240 1.00000 0.00000             
Pb    core -1.428816 7.4534575 1.7080536 1.75282400 1.00000 0.00000             
Pb    core 1.4828266 4.6109421 1.4597375 1.75282400 1.00000 0.00000             
Pb    core 1.7311427 7.4534575 -1.451905 1.75282400 1.00000 0.00000             
S     core 1.7265526 7.4491050 13.433941 -1.7528240 1.00000 0.00000             
S     core 1.4849754 4.6080533 10.515024 -1.7528240 1.00000 0.00000             
S     core -1.433941 7.4491050 10.273447 -1.7528240 1.00000 0.00000             
Pb    core 1.7311427 4.5696315 13.428816 1.75282400 1.00000 0.00000             
Pb    core 1.4828266 7.4121469 10.517173 1.75282400 1.00000 0.00000             
Pb    core -1.428816 4.5696315 10.268857 1.75282400 1.00000 0.00000             
S     core 1.4849754 1.4849754 7.3919466 -1.7528240 1.00000 0.00000             
S     core 1.7265526 -1.433941 4.5508949 -1.7528240 1.00000 0.00000             
S     core -1.433941 1.7265526 4.5508949 -1.7528240 1.00000 0.00000             
Pb    core -1.428816 1.7311427 7.4303684 1.75282400 1.00000 0.00000             
Pb    core 1.7311427 -1.428816 7.4303684 1.75282400 1.00000 0.00000             
Pb    core 1.4828266 1.4828266 4.5878530 1.75282400 1.00000 0.00000             
S     core 1.7265526 13.457030 7.4260159 -1.7528240 1.00000 0.00000             
S     core -1.433941 10.296536 7.4260159 -1.7528240 1.00000 0.00000             
S     core 1.4849754 10.538113 4.5849642 -1.7528240 1.00000 0.00000             
Pb    core 1.4828266 10.540262 7.3890578 1.75282400 1.00000 0.00000             
Pb    core 1.7311427 13.451905 4.5465424 1.75282400 1.00000 0.00000             
Pb    core -1.428816 10.291946 4.5465424 1.75282400 1.00000 0.00000             
S     core 13.457030 7.4491050 1.7034635 -1.7528240 1.00000 0.00000             
S     core 10.538113 4.6080533 1.4618863 -1.7528240 1.00000 0.00000             
S     core 10.296536 7.4491050 -1.457030 -1.7528240 1.00000 0.00000             
Pb    core 10.540262 7.4121469 1.4597375 1.75282400 1.00000 0.00000             
Pb    core 13.451905 4.5696315 1.7080536 1.75282400 1.00000 0.00000             
Pb    core 10.291946 4.5696315 -1.451905 1.75282400 1.00000 0.00000             
S     core 10.296536 4.5739840 13.433941 -1.7528240 1.00000 0.00000             
S     core 13.457030 4.5739840 10.273447 -1.7528240 1.00000 0.00000             
S     core 10.538113 7.4150357 10.515024 -1.7528240 1.00000 0.00000             
Pb    core 10.291946 7.4534575 13.428816 1.75282400 1.00000 0.00000             
Pb    core 13.451905 7.4534575 10.268857 1.75282400 1.00000 0.00000             
Pb    core 10.540262 4.6109421 10.517173 1.75282400 1.00000 0.00000             
S     core 13.457030 1.7265526 7.4260159 -1.7528240 1.00000 0.00000             
S     core 10.296536 -1.433941 7.4260159 -1.7528240 1.00000 0.00000             
S     core 10.538113 1.4849754 4.5849642 -1.7528240 1.00000 0.00000             
Pb    core 10.540262 1.4828266 7.3890578 1.75282400 1.00000 0.00000             
Pb    core 13.451905 1.7311427 4.5465424 1.75282400 1.00000 0.00000             
Pb    core 10.291946 -1.428816 4.5465424 1.75282400 1.00000 0.00000             
S     core 10.538113 10.538113 7.3919466 -1.7528240 1.00000 0.00000             
S     core 13.457030 10.296536 4.5508949 -1.7528240 1.00000 0.00000             
S     core 10.296536 13.457030 4.5508949 -1.7528240 1.00000 0.00000             
Pb    core 10.291946 13.451905 7.4303684 1.75282400 1.00000 0.00000             
Pb    core 13.451905 10.291946 7.4303684 1.75282400 1.00000 0.00000             
Pb    core 10.540262 10.540262 4.5878530 1.75282400 1.00000 0.00000             
S     core 7.5768052 7.5768052 1.5361723 -1.7528240 1.00000 0.00000             
S     core 4.4462838 4.4462838 1.5361723 -1.7528240 1.00000 0.00000             
S     core 7.4168272 4.6062618 -1.401023 -1.7528240 1.00000 0.00000             
S     core 4.6062618 7.4168272 -1.401023 -1.7528240 1.00000 0.00000             
Pb    core 4.4470072 7.5760818 1.5367126 1.75282400 1.00000 0.00000             
Pb    core 7.5760818 4.4470072 1.5367126 1.75282400 1.00000 0.00000             
Pb    core 7.4180033 7.4180033 -1.399043 1.75282400 1.00000 0.00000             
Pb    core 4.6050857 4.6050857 -1.399043 1.75282400 1.00000 0.00000             
S     core 7.4168272 7.4168272 13.377934 -1.7528240 1.00000 0.00000             
S     core 4.6062618 4.6062618 13.377934 -1.7528240 1.00000 0.00000             
S     core 7.5768052 4.4462838 10.440738 -1.7528240 1.00000 0.00000             
S     core 4.4462838 7.5768052 10.440738 -1.7528240 1.00000 0.00000             
Pb    core 4.6050857 7.4180033 13.375954 1.75282400 1.00000 0.00000             
Pb    core 7.4180033 4.6050857 13.375954 1.75282400 1.00000 0.00000             
Pb    core 7.5760818 7.5760818 10.440198 1.75282400 1.00000 0.00000             
Pb    core 4.4470072 4.4470072 10.440198 1.75282400 1.00000 0.00000             
S     core 7.5768052 1.5592614 7.5537161 -1.7528240 1.00000 0.00000             
S     core 4.6062618 -1.377934 7.3937381 -1.7528240 1.00000 0.00000             
S     core 7.4168272 -1.377934 4.5831727 -1.7528240 1.00000 0.00000             
S     core 4.4462838 1.5592614 4.4231947 -1.7528240 1.00000 0.00000             
Pb    core 4.4470072 1.5598017 7.5529927 1.75282400 1.00000 0.00000             
Pb    core 7.4180033 -1.375954 7.3949142 1.75282400 1.00000 0.00000             
Pb    core 7.5760818 1.5598017 4.4239181 1.75282400 1.00000 0.00000             
Pb    core 4.6050857 -1.375954 4.5819966 1.75282400 1.00000 0.00000             
S     core 7.4168272 13.401023 7.3937381 -1.7528240 1.00000 0.00000             
S     core 4.4462838 10.463827 7.5537161 -1.7528240 1.00000 0.00000             
S     core 7.5768052 10.463827 4.4231947 -1.7528240 1.00000 0.00000             
S     core 4.6062618 13.401023 4.5831727 -1.7528240 1.00000 0.00000             
Pb    core 4.6050857 13.399043 7.3949142 1.75282400 1.00000 0.00000             
Pb    core 7.5760818 10.463287 7.5529927 1.75282400 1.00000 0.00000             
Pb    core 7.4180033 13.399043 4.5819966 1.75282400 1.00000 0.00000             
Pb    core 4.4470072 10.463287 4.4239181 1.75282400 1.00000 0.00000             
S     core 1.5592614 7.5768052 7.5537161 -1.7528240 1.00000 0.00000             
S     core -1.377934 4.6062618 7.3937381 -1.7528240 1.00000 0.00000             
S     core 1.5592614 4.4462838 4.4231947 -1.7528240 1.00000 0.00000             
S     core -1.377934 7.4168272 4.5831727 -1.7528240 1.00000 0.00000             
Pb    core -1.375954 7.4180033 7.3949142 1.75282400 1.00000 0.00000             
Pb    core 1.5598017 4.4470072 7.5529927 1.75282400 1.00000 0.00000             
Pb    core 1.5598017 7.5760818 4.4239181 1.75282400 1.00000 0.00000             
Pb    core -1.375954 4.6050857 4.5819966 1.75282400 1.00000 0.00000             
S     core 13.401023 7.4168272 7.3937381 -1.7528240 1.00000 0.00000             
S     core 10.463827 4.4462838 7.5537161 -1.7528240 1.00000 0.00000             
S     core 13.401023 4.6062618 4.5831727 -1.7528240 1.00000 0.00000             
S     core 10.463827 7.5768052 4.4231947 -1.7528240 1.00000 0.00000             
Pb    core 10.463287 7.5760818 7.5529927 1.75282400 1.00000 0.00000             
Pb    core 13.399043 4.6050857 7.3949142 1.75282400 1.00000 0.00000             
Pb    core 13.399043 7.4180033 4.5819966 1.75282400 1.00000 0.00000             
Pb    core 10.463287 4.4470072 4.4239181 1.75282400 1.00000 0.00000             
S     core 7.5070890 7.5070890 7.4840000 -1.7528240 1.00000 0.00000             
S     core 4.5160000 4.5160000 7.4840000 -1.7528240 1.00000 0.00000             
S     core 7.5070890 4.5160000 4.4929109 -1.7528240 1.00000 0.00000             
S     core 4.5160000 7.5070890 4.4929109 -1.7528240 1.00000 0.00000             
Pb    core 4.5156508 7.5074382 7.4843491 1.75282400 1.00000 0.00000             
Pb    core 7.5074382 4.5156508 7.4843491 1.75282400 1.00000 0.00000             
Pb    core 7.5074382 7.5074382 4.4925617 1.75282400 1.00000 0.00000             
Pb    core 4.5156508 4.5156508 4.4925617 1.75282400 1.00000 0.00000             
species   2
S      core   -1.752824                  
Pb     core    1.752824                  
buck     
S     core S     core  11413.0900     0.153000  129.1800      0.00 15.00
buck     
Pb    core Pb    core  11413.0900     0.153000  200.0000      0.00 15.00
buck     
S     core Pb    core  2845.45780     0.347536  0.000000      0.00 15.00
dump Results\PbS_COMP_CUBIC_05.gin                               
output frc Results\PbS_COMP_CUBIC_05.frc                               
