# 
# Keywords:
# 
conp opti  
# 
# Options:
# 
cartesian 
S     core -0.654097 1.7428627 0.0999365 -1.7528240 1.00000 0.00000             
Pb    core -2.670284 2.7388029 1.5179285 1.75282400 1.00000 0.00000             
Pb    core 1.8576438 1.7603909 1.3087316 1.75282400 1.00000 0.00000             
Pb    core 0.1742337 4.1438535 -1.069848 1.75282400 1.00000 0.00000             
Pb    core -0.418666 4.3006230 8.9242211 1.75282400 1.00000 0.00000             
Pb    core 2.4566300 12.574685 1.6145019 1.75282400 1.00000 0.00000             
Pb    core 9.0587217 3.4882730 0.0172263 1.75282400 1.00000 0.00000             
S     core 7.9851882 1.0086594 -0.620478 -1.7528240 1.00000 0.00000             
S     core 4.7371838 1.2816131 1.7173913 -1.7528240 1.00000 0.00000             
S     core 2.8357461 3.0290039 -1.137014 -1.7528240 1.00000 0.00000             
Pb    core 5.6262615 4.0600926 2.3911750 1.75282400 1.00000 0.00000             
Pb    core 7.4547609 0.3062838 1.9940286 1.75282400 1.00000 0.00000             
Pb    core 5.4024427 1.9364575 -1.021128 1.75282400 1.00000 0.00000             
S     core 2.1669007 3.7171381 7.9009480 -1.7528240 1.00000 0.00000             
Pb    core 8.4828722 4.1414982 9.0109141 1.75282400 1.00000 0.00000             
S     core 5.0146576 13.384902 1.4941331 -1.7528240 1.00000 0.00000             
Pb    core 7.4937332 12.285996 1.5279257 1.75282400 1.00000 0.00000             
S     core 1.9072596 9.8702804 1.3132994 -1.7528240 1.00000 0.00000             
S     core -1.459975 5.2465822 1.1920663 -1.7528240 1.00000 0.00000             
S     core 1.3007541 6.7774988 -1.355224 -1.7528240 1.00000 0.00000             
Pb    core 0.5421371 7.1522654 1.4377742 1.75282400 1.00000 0.00000             
Pb    core 2.5635946 9.1530234 -1.317000 1.75282400 1.00000 0.00000             
S     core 0.5594773 6.8790571 9.6640448 -1.7528240 1.00000 0.00000             
Pb    core 1.5846045 9.3438400 10.102862 1.75282400 1.00000 0.00000             
S     core -1.286694 1.7761048 8.1283845 -1.7528240 1.00000 0.00000             
S     core 1.6395720 1.8559416 4.2202720 -1.7528240 1.00000 0.00000             
S     core -3.773078 3.4366457 3.8742602 -1.7528240 1.00000 0.00000             
Pb    core -3.005740 2.8779441 6.3686809 1.75282400 1.00000 0.00000             
Pb    core 1.1670408 1.1347567 6.9699570 1.75282400 1.00000 0.00000             
Pb    core 2.4177637 4.5569561 4.8934606 1.75282400 1.00000 0.00000             
S     core 1.9839148 12.887913 4.2884791 -1.7528240 1.00000 0.00000             
Pb    core 2.0503195 12.944742 6.9863985 1.75282400 1.00000 0.00000             
S     core 10.110782 6.0628569 0.7948091 -1.7528240 1.00000 0.00000             
Pb    core 10.975026 8.4809187 1.7889949 1.75282400 1.00000 0.00000             
S     core 8.4566558 2.9172025 2.7768868 -1.7528240 1.00000 0.00000             
S     core 8.6640044 9.8349260 1.2315693 -1.7528240 1.00000 0.00000             
S     core 3.0242670 5.5988940 2.1573923 -1.7528240 1.00000 0.00000             
S     core 6.4653983 4.6311731 -0.342705 -1.7528240 1.00000 0.00000             
S     core 4.9494921 8.2142366 -0.483969 -1.7528240 1.00000 0.00000             
Pb    core 4.3095468 8.1319563 2.3212172 1.75282400 1.00000 0.00000             
Pb    core 7.5149071 7.3089024 0.2169875 1.75282400 1.00000 0.00000             
Pb    core 3.8261647 5.5656575 -0.747498 1.75282400 1.00000 0.00000             
S     core 9.3824932 6.7029891 9.7135109 -1.7528240 1.00000 0.00000             
S     core 4.2334403 8.7226248 9.8735199 -1.7528240 1.00000 0.00000             
Pb    core 6.8531502 7.7444781 9.8057697 1.75282400 1.00000 0.00000             
Pb    core 3.1993411 6.1069301 8.9755446 1.75282400 1.00000 0.00000             
S     core 7.4883604 1.5915977 8.2455627 -1.7528240 1.00000 0.00000             
S     core 3.8380207 0.0737601 7.2151726 -1.7528240 1.00000 0.00000             
S     core 6.9637781 -0.310167 4.7189133 -1.7528240 1.00000 0.00000             
S     core 5.2047882 3.4581346 5.2114986 -1.7528240 1.00000 0.00000             
Pb    core 4.7952721 2.6755056 7.9996218 1.75282400 1.00000 0.00000             
Pb    core 6.4365921 -0.828050 7.3678789 1.75282400 1.00000 0.00000             
Pb    core 7.9243648 2.3157604 5.4721404 1.75282400 1.00000 0.00000             
Pb    core 4.2409411 0.7525154 4.4405602 1.75282400 1.00000 0.00000             
S     core 4.7735040 12.628387 7.2218077 -1.7528240 1.00000 0.00000             
S     core 7.7567624 12.301696 4.3599590 -1.7528240 1.00000 0.00000             
Pb    core 7.4026013 11.855599 7.0252260 1.75282400 1.00000 0.00000             
Pb    core 4.9436634 12.918004 4.2988718 1.75282400 1.00000 0.00000             
S     core 1.3223697 10.323779 7.4833332 -1.7528240 1.00000 0.00000             
S     core -1.683872 5.3762242 6.6247302 -1.7528240 1.00000 0.00000             
S     core 3.1464703 7.1055601 6.2555633 -1.7528240 1.00000 0.00000             
S     core -0.245431 7.8996461 4.0782242 -1.7528240 1.00000 0.00000             
Pb    core 0.1524331 7.5351725 6.8367092 1.75282400 1.00000 0.00000             
Pb    core 1.6342290 9.9521269 4.3428129 1.75282400 1.00000 0.00000             
Pb    core -2.271643 5.8662398 3.8664635 1.75282400 1.00000 0.00000             
S     core 8.8200987 4.9271013 6.2622781 -1.7528240 1.00000 0.00000             
S     core 10.378202 8.0816712 4.4413974 -1.7528240 1.00000 0.00000             
Pb    core 9.3432438 5.4942832 3.5233962 1.75282400 1.00000 0.00000             
S     core 7.3058502 9.0263451 7.1303719 -1.7528240 1.00000 0.00000             
S     core 5.8371924 5.2367306 8.8795862 -1.7528240 1.00000 0.00000             
S     core 6.7400093 6.7954792 3.1957472 -1.7528240 1.00000 0.00000             
S     core 4.6494601 10.089982 4.2807316 -1.7528240 1.00000 0.00000             
Pb    core 4.3039558 9.6163569 7.0929850 1.75282400 1.00000 0.00000             
Pb    core 9.8699471 7.4323321 7.1034025 1.75282400 1.00000 0.00000             
Pb    core 7.7206419 9.3882989 4.0647510 1.75282400 1.00000 0.00000             
Pb    core 6.0390530 6.1171580 6.0000000 1.75282400 1.00000 0.00000             
species   2
S      core   -1.752824                  
Pb     core    1.752824                  
buck     
S     core S     core  11413.0900     0.153000  129.1800      0.00 15.00
buck     
Pb    core Pb    core  11413.0900     0.153000  200.0000      0.00 15.00
buck     
S     core Pb    core  2845.45780     0.347536  0.000000      0.00 15.00
dump Results\PbS_COMP_CUBIC_04.gin                               
output frc Results\PbS_COMP_CUBIC_04.frc                               
