# 
# Keywords:
# 
conp opti  
# 
# Options:
# 
cartesian 
S     core -8.853781 -8.826944 -14.73901 -1.7528240 1.00000 0.00000             
S     core -8.853781 -14.76294 -8.803009 -1.7528240 1.00000 0.00000             
S     core -14.78978 -8.826944 -8.803009 -1.7528240 1.00000 0.00000             
S     core 3.0182190 -14.76294 -14.73901 -1.7528240 1.00000 0.00000             
S     core -2.917781 -2.890944 -20.67501 -1.7528240 1.00000 0.00000             
S     core -2.917781 -8.826944 -14.73901 -1.7528240 1.00000 0.00000             
Pb    core -5.885781 -8.826944 -14.73901 1.75282400 1.00000 0.00000             
Pb    core -2.917781 -11.79494 -14.73901 1.75282400 1.00000 0.00000             
Pb    core -2.917781 -8.826944 -17.70701 1.75282400 1.00000 0.00000             
S     core -2.917781 -14.76294 -8.803009 -1.7528240 1.00000 0.00000             
Pb    core -5.885781 -14.76294 -8.803009 1.75282400 1.00000 0.00000             
Pb    core -2.917781 -14.76294 -11.77101 1.75282400 1.00000 0.00000             
S     core -2.917781 -20.69894 -2.867009 -1.7528240 1.00000 0.00000             
Pb    core -2.917781 23.821060 -14.73901 1.75282400 1.00000 0.00000             
S     core -8.853781 -2.890944 -14.73901 -1.7528240 1.00000 0.00000             
Pb    core -11.82178 -2.890944 -14.73901 1.75282400 1.00000 0.00000             
Pb    core -8.853781 -5.858944 -14.73901 1.75282400 1.00000 0.00000             
Pb    core -8.853781 -2.890944 -17.70701 1.75282400 1.00000 0.00000             
Pb    core -8.853781 -2.890944 29.780990 1.75282400 1.00000 0.00000             
S     core -8.853781 -8.826944 -8.803009 -1.7528240 1.00000 0.00000             
S     core -11.82178 -11.79494 -8.803009 -1.7528240 1.00000 0.00000             
S     core -8.853781 -11.79494 -11.77101 -1.7528240 1.00000 0.00000             
S     core -11.82178 -8.826944 -11.77101 -1.7528240 1.00000 0.00000             
Pb    core -11.82178 -8.826944 -8.803009 1.75282400 1.00000 0.00000             
Pb    core -8.853781 -11.79494 -8.803009 1.75282400 1.00000 0.00000             
Pb    core -8.853781 -8.826944 -11.77101 1.75282400 1.00000 0.00000             
S     core -8.853781 -8.826944 26.812990 -1.7528240 1.00000 0.00000             
S     core -8.853781 -11.79494 23.844990 -1.7528240 1.00000 0.00000             
S     core -11.82178 -8.826944 23.844990 -1.7528240 1.00000 0.00000             
Pb    core -8.853781 -8.826944 23.844990 1.75282400 1.00000 0.00000             
S     core -8.853781 -14.76294 -2.867009 -1.7528240 1.00000 0.00000             
Pb    core -11.82178 -14.76294 -2.867009 1.75282400 1.00000 0.00000             
Pb    core -8.853781 -17.73094 -2.867009 1.75282400 1.00000 0.00000             
Pb    core -8.853781 -14.76294 -5.835009 1.75282400 1.00000 0.00000             
S     core -8.853781 -14.76294 20.876990 -1.7528240 1.00000 0.00000             
Pb    core -8.853781 -14.76294 17.908990 1.75282400 1.00000 0.00000             
S     core -8.853781 20.853060 -14.73901 -1.7528240 1.00000 0.00000             
Pb    core -8.853781 17.885060 -14.73901 1.75282400 1.00000 0.00000             
S     core -8.853781 26.789060 -8.803009 -1.7528240 1.00000 0.00000             
S     core -11.82178 23.821060 -8.803009 -1.7528240 1.00000 0.00000             
S     core -8.853781 23.821060 -11.77101 -1.7528240 1.00000 0.00000             
Pb    core -8.853781 23.821060 -8.803009 1.75282400 1.00000 0.00000             
S     core -8.853781 23.821060 23.844990 -1.7528240 1.00000 0.00000             
S     core -14.78978 3.0450560 -14.73901 -1.7528240 1.00000 0.00000             
S     core -14.78978 -2.890944 -8.803009 -1.7528240 1.00000 0.00000             
Pb    core -17.75778 -2.890944 -8.803009 1.75282400 1.00000 0.00000             
Pb    core -14.78978 -5.858944 -8.803009 1.75282400 1.00000 0.00000             
Pb    core -14.78978 -2.890944 -11.77101 1.75282400 1.00000 0.00000             
S     core -14.78978 -8.826944 -2.867009 -1.7528240 1.00000 0.00000             
Pb    core -17.75778 -8.826944 -2.867009 1.75282400 1.00000 0.00000             
Pb    core -14.78978 -11.79494 -2.867009 1.75282400 1.00000 0.00000             
Pb    core -14.78978 -8.826944 -5.835009 1.75282400 1.00000 0.00000             
S     core -14.78978 -8.826944 20.876990 -1.7528240 1.00000 0.00000             
Pb    core -14.78978 -8.826944 17.908990 1.75282400 1.00000 0.00000             
S     core -14.78978 -14.76294 3.0689910 -1.7528240 1.00000 0.00000             
S     core -14.78978 20.853060 -8.803009 -1.7528240 1.00000 0.00000             
Pb    core -14.78978 17.885060 -8.803009 1.75282400 1.00000 0.00000             
Pb    core -14.78978 23.821060 -2.867009 1.75282400 1.00000 0.00000             
S     core -20.72578 -2.890944 -2.867009 -1.7528240 1.00000 0.00000             
S     core 20.826220 -8.826944 -14.73901 -1.7528240 1.00000 0.00000             
Pb    core 17.858220 -8.826944 -14.73901 1.75282400 1.00000 0.00000             
S     core 20.826220 -14.76294 -8.803009 -1.7528240 1.00000 0.00000             
Pb    core 17.858220 -14.76294 -8.803009 1.75282400 1.00000 0.00000             
S     core 26.762220 -8.826944 -8.803009 -1.7528240 1.00000 0.00000             
S     core 23.794220 -11.79494 -8.803009 -1.7528240 1.00000 0.00000             
S     core 23.794220 -8.826944 -11.77101 -1.7528240 1.00000 0.00000             
Pb    core 23.794220 -8.826944 -8.803009 1.75282400 1.00000 0.00000             
S     core 23.794220 -8.826944 23.844990 -1.7528240 1.00000 0.00000             
Pb    core 23.794220 -14.76294 -2.867009 1.75282400 1.00000 0.00000             
S     core 23.794220 23.821060 -8.803009 -1.7528240 1.00000 0.00000             
Pb    core 29.730220 -2.890944 -8.803009 1.75282400 1.00000 0.00000             
Pb    core 29.730220 -8.826944 -2.867009 1.75282400 1.00000 0.00000             
S     core 8.9542190 -14.76294 -14.73901 -1.7528240 1.00000 0.00000             
Pb    core 5.9862190 -14.76294 -14.73901 1.75282400 1.00000 0.00000             
S     core 3.0182190 -2.890944 -20.67501 -1.7528240 1.00000 0.00000             
Pb    core 0.0502189 -2.890944 -20.67501 1.75282400 1.00000 0.00000             
S     core 3.0182190 -8.826944 -14.73901 -1.7528240 1.00000 0.00000             
S     core 0.0502189 -11.79494 -14.73901 -1.7528240 1.00000 0.00000             
S     core 0.0502189 -8.826944 -17.70701 -1.7528240 1.00000 0.00000             
Pb    core 0.0502189 -8.826944 -14.73901 1.75282400 1.00000 0.00000             
Pb    core 3.0182190 -11.79494 -14.73901 1.75282400 1.00000 0.00000             
Pb    core 3.0182190 -8.826944 -17.70701 1.75282400 1.00000 0.00000             
S     core 0.0502189 -8.826944 29.780990 -1.7528240 1.00000 0.00000             
Pb    core 3.0182190 -8.826944 29.780990 1.75282400 1.00000 0.00000             
S     core 3.0182190 -14.76294 -8.803009 -1.7528240 1.00000 0.00000             
S     core 0.0502189 -17.73094 -8.803009 -1.7528240 1.00000 0.00000             
S     core 0.0502189 -14.76294 -11.77101 -1.7528240 1.00000 0.00000             
Pb    core 0.0502189 -14.76294 -8.803009 1.75282400 1.00000 0.00000             
Pb    core 3.0182190 -17.73094 -8.803009 1.75282400 1.00000 0.00000             
Pb    core 3.0182190 -14.76294 -11.77101 1.75282400 1.00000 0.00000             
S     core 3.0182190 -14.76294 26.812990 -1.7528240 1.00000 0.00000             
S     core 0.0502189 -14.76294 23.844990 -1.7528240 1.00000 0.00000             
Pb    core 3.0182190 -14.76294 23.844990 1.75282400 1.00000 0.00000             
S     core 3.0182190 -20.69894 -2.867009 -1.7528240 1.00000 0.00000             
Pb    core 0.0502189 -20.69894 -2.867009 1.75282400 1.00000 0.00000             
Pb    core 3.0182190 -20.69894 -5.835009 1.75282400 1.00000 0.00000             
Pb    core 3.0182190 -20.69894 17.908990 1.75282400 1.00000 0.00000             
Pb    core 3.0182190 17.885060 -20.67501 1.75282400 1.00000 0.00000             
S     core 3.0182190 26.789060 -14.73901 -1.7528240 1.00000 0.00000             
S     core 0.0502189 23.821060 -14.73901 -1.7528240 1.00000 0.00000             
Pb    core 3.0182190 23.821060 -14.73901 1.75282400 1.00000 0.00000             
S     core 0.0502189 29.757060 -8.803009 -1.7528240 1.00000 0.00000             
Pb    core 3.0182190 29.757060 -8.803009 1.75282400 1.00000 0.00000             
S     core -2.917781 3.0450560 -20.67501 -1.7528240 1.00000 0.00000             
Pb    core -2.917781 0.0770557 -20.67501 1.75282400 1.00000 0.00000             
S     core -2.917781 -2.890944 -14.73901 -1.7528240 1.00000 0.00000             
S     core -5.885781 -5.858944 -14.73901 -1.7528240 1.00000 0.00000             
S     core -2.917781 -5.858944 -17.70701 -1.7528240 1.00000 0.00000             
S     core -5.885781 -2.890944 -17.70701 -1.7528240 1.00000 0.00000             
Pb    core -5.885781 -2.890944 -14.73901 1.75282400 1.00000 0.00000             
Pb    core -2.917781 -5.858944 -14.73901 1.75282400 1.00000 0.00000             
Pb    core -2.917781 -2.890944 -17.70701 1.75282400 1.00000 0.00000             
Pb    core -5.885781 -5.858944 -17.70701 1.75282400 1.00000 0.00000             
S     core -2.917781 -2.890944 32.748990 -1.7528240 1.00000 0.00000             
S     core -2.917781 -5.858944 29.780990 -1.7528240 1.00000 0.00000             
S     core -5.885781 -2.890944 29.780990 -1.7528240 1.00000 0.00000             
Pb    core -2.917781 -2.890944 29.780990 1.75282400 1.00000 0.00000             
Pb    core -5.885781 -5.858944 29.780990 1.75282400 1.00000 0.00000             
S     core -2.917781 -8.826944 -8.803009 -1.7528240 1.00000 0.00000             
S     core -5.885781 -11.79494 -8.803009 -1.7528240 1.00000 0.00000             
S     core -2.917781 -11.79494 -11.77101 -1.7528240 1.00000 0.00000             
S     core -5.885781 -8.826944 -11.77101 -1.7528240 1.00000 0.00000             
Pb    core -5.885781 -8.826944 -8.803009 1.75282400 1.00000 0.00000             
Pb    core -2.917781 -11.79494 -8.803009 1.75282400 1.00000 0.00000             
Pb    core -2.917781 -8.826944 -11.77101 1.75282400 1.00000 0.00000             
Pb    core -5.885781 -11.79494 -11.77101 1.75282400 1.00000 0.00000             
S     core -2.917781 -8.826944 26.812990 -1.7528240 1.00000 0.00000             
S     core -2.917781 -11.79494 23.844990 -1.7528240 1.00000 0.00000             
S     core -5.885781 -8.826944 23.844990 -1.7528240 1.00000 0.00000             
Pb    core -5.885781 -8.826944 26.812990 1.75282400 1.00000 0.00000             
Pb    core -2.917781 -11.79494 26.812990 1.75282400 1.00000 0.00000             
Pb    core -2.917781 -8.826944 23.844990 1.75282400 1.00000 0.00000             
Pb    core -5.885781 -11.79494 23.844990 1.75282400 1.00000 0.00000             
S     core -2.917781 -14.76294 -2.867009 -1.7528240 1.00000 0.00000             
S     core -5.885781 -17.73094 -2.867009 -1.7528240 1.00000 0.00000             
S     core -2.917781 -17.73094 -5.835009 -1.7528240 1.00000 0.00000             
S     core -5.885781 -14.76294 -5.835009 -1.7528240 1.00000 0.00000             
Pb    core -5.885781 -14.76294 -2.867009 1.75282400 1.00000 0.00000             
Pb    core -2.917781 -17.73094 -2.867009 1.75282400 1.00000 0.00000             
Pb    core -2.917781 -14.76294 -5.835009 1.75282400 1.00000 0.00000             
Pb    core -5.885781 -17.73094 -5.835009 1.75282400 1.00000 0.00000             
S     core -2.917781 -14.76294 20.876990 -1.7528240 1.00000 0.00000             
S     core -2.917781 -17.73094 17.908990 -1.7528240 1.00000 0.00000             
S     core -5.885781 -14.76294 17.908990 -1.7528240 1.00000 0.00000             
Pb    core -5.885781 -14.76294 20.876990 1.75282400 1.00000 0.00000             
Pb    core -2.917781 -14.76294 17.908990 1.75282400 1.00000 0.00000             
Pb    core -5.885781 -17.73094 17.908990 1.75282400 1.00000 0.00000             
S     core -2.917781 -20.69894 3.0689910 -1.7528240 1.00000 0.00000             
Pb    core -2.917781 -20.69894 0.1009912 1.75282400 1.00000 0.00000             
S     core -2.917781 -20.69894 14.940990 -1.7528240 1.00000 0.00000             
Pb    core -2.917781 -20.69894 11.972990 1.75282400 1.00000 0.00000             
S     core -2.917781 14.917060 -20.67501 -1.7528240 1.00000 0.00000             
Pb    core -2.917781 11.949060 -20.67501 1.75282400 1.00000 0.00000             
S     core -2.917781 20.853060 -14.73901 -1.7528240 1.00000 0.00000             
S     core -5.885781 17.885060 -14.73901 -1.7528240 1.00000 0.00000             
S     core -2.917781 17.885060 -17.70701 -1.7528240 1.00000 0.00000             
Pb    core -5.885781 20.853060 -14.73901 1.75282400 1.00000 0.00000             
Pb    core -2.917781 17.885060 -14.73901 1.75282400 1.00000 0.00000             
Pb    core -5.885781 17.885060 -17.70701 1.75282400 1.00000 0.00000             
S     core -2.917781 17.885060 29.780990 -1.7528240 1.00000 0.00000             
Pb    core -2.917781 20.853060 29.780990 1.75282400 1.00000 0.00000             
Pb    core -5.885781 17.885060 29.780990 1.75282400 1.00000 0.00000             
S     core -2.917781 26.789060 -8.803009 -1.7528240 1.00000 0.00000             
S     core -5.885781 23.821060 -8.803009 -1.7528240 1.00000 0.00000             
S     core -2.917781 23.821060 -11.77101 -1.7528240 1.00000 0.00000             
Pb    core -5.885781 26.789060 -8.803009 1.75282400 1.00000 0.00000             
Pb    core -2.917781 23.821060 -8.803009 1.75282400 1.00000 0.00000             
Pb    core -2.917781 26.789060 -11.77101 1.75282400 1.00000 0.00000             
Pb    core -5.885781 23.821060 -11.77101 1.75282400 1.00000 0.00000             
S     core -2.917781 23.821060 23.844990 -1.7528240 1.00000 0.00000             
Pb    core -2.917781 23.821060 26.812990 1.75282400 1.00000 0.00000             
Pb    core -2.917781 26.789060 23.844990 1.75282400 1.00000 0.00000             
Pb    core -5.885781 23.821060 23.844990 1.75282400 1.00000 0.00000             
S     core -2.917781 32.725060 -2.867009 -1.7528240 1.00000 0.00000             
S     core -5.885781 29.757060 -2.867009 -1.7528240 1.00000 0.00000             
S     core -2.917781 29.757060 -5.835009 -1.7528240 1.00000 0.00000             
Pb    core -2.917781 29.757060 -2.867009 1.75282400 1.00000 0.00000             
Pb    core -5.885781 29.757060 -5.835009 1.75282400 1.00000 0.00000             
S     core -2.917781 29.757060 17.908990 -1.7528240 1.00000 0.00000             
Pb    core -2.917781 29.757060 20.876990 1.75282400 1.00000 0.00000             
Pb    core -5.885781 29.757060 17.908990 1.75282400 1.00000 0.00000             
S     core -8.853781 3.0450560 -14.73901 -1.7528240 1.00000 0.00000             
S     core -11.82178 0.0770557 -14.73901 -1.7528240 1.00000 0.00000             
S     core -8.853781 0.0770557 -17.70701 -1.7528240 1.00000 0.00000             
Pb    core -11.82178 3.0450560 -14.73901 1.75282400 1.00000 0.00000             
Pb    core -8.853781 0.0770557 -14.73901 1.75282400 1.00000 0.00000             
Pb    core -8.853781 3.0450560 -17.70701 1.75282400 1.00000 0.00000             
S     core -8.853781 0.0770557 29.780990 -1.7528240 1.00000 0.00000             
Pb    core -8.853781 3.0450560 29.780990 1.75282400 1.00000 0.00000             
S     core -8.853781 -2.890944 -8.803009 -1.7528240 1.00000 0.00000             
S     core -11.82178 -5.858944 -8.803009 -1.7528240 1.00000 0.00000             
S     core -8.853781 -5.858944 -11.77101 -1.7528240 1.00000 0.00000             
S     core -11.82178 -2.890944 -11.77101 -1.7528240 1.00000 0.00000             
Pb    core -11.82178 -2.890944 -8.803009 1.75282400 1.00000 0.00000             
Pb    core -8.853781 -5.858944 -8.803009 1.75282400 1.00000 0.00000             
Pb    core -8.853781 -2.890944 -11.77101 1.75282400 1.00000 0.00000             
Pb    core -11.82178 -5.858944 -11.77101 1.75282400 1.00000 0.00000             
S     core -8.853781 -2.890944 26.812990 -1.7528240 1.00000 0.00000             
S     core -8.853781 -5.858944 23.844990 -1.7528240 1.00000 0.00000             
S     core -11.82178 -2.890944 23.844990 -1.7528240 1.00000 0.00000             
Pb    core -11.82178 -2.890944 26.812990 1.75282400 1.00000 0.00000             
Pb    core -8.853781 -5.858944 26.812990 1.75282400 1.00000 0.00000             
Pb    core -8.853781 -2.890944 23.844990 1.75282400 1.00000 0.00000             
Pb    core -11.82178 -5.858944 23.844990 1.75282400 1.00000 0.00000             
S     core -8.853781 -8.826944 -2.867009 -1.7528240 1.00000 0.00000             
S     core -11.82178 -11.79494 -2.867009 -1.7528240 1.00000 0.00000             
S     core -8.853781 -11.79494 -5.835009 -1.7528240 1.00000 0.00000             
S     core -11.82178 -8.826944 -5.835009 -1.7528240 1.00000 0.00000             
Pb    core -11.82178 -8.826944 -2.867009 1.75282400 1.00000 0.00000             
Pb    core -8.853781 -11.79494 -2.867009 1.75282400 1.00000 0.00000             
Pb    core -8.853781 -8.826944 -5.835009 1.75282400 1.00000 0.00000             
Pb    core -11.82178 -11.79494 -5.835009 1.75282400 1.00000 0.00000             
S     core -8.853781 -8.826944 20.876990 -1.7528240 1.00000 0.00000             
S     core -11.82178 -11.79494 20.876990 -1.7528240 1.00000 0.00000             
S     core -8.853781 -11.79494 17.908990 -1.7528240 1.00000 0.00000             
S     core -11.82178 -8.826944 17.908990 -1.7528240 1.00000 0.00000             
Pb    core -11.82178 -8.826944 20.876990 1.75282400 1.00000 0.00000             
Pb    core -8.853781 -11.79494 20.876990 1.75282400 1.00000 0.00000             
Pb    core -8.853781 -8.826944 17.908990 1.75282400 1.00000 0.00000             
Pb    core -11.82178 -11.79494 17.908990 1.75282400 1.00000 0.00000             
S     core -8.853781 -14.76294 3.0689910 -1.7528240 1.00000 0.00000             
S     core -8.853781 -17.73094 0.1009912 -1.7528240 1.00000 0.00000             
S     core -11.82178 -14.76294 0.1009912 -1.7528240 1.00000 0.00000             
Pb    core -11.82178 -14.76294 3.0689910 1.75282400 1.00000 0.00000             
Pb    core -8.853781 -17.73094 3.0689910 1.75282400 1.00000 0.00000             
Pb    core -8.853781 -14.76294 0.1009912 1.75282400 1.00000 0.00000             
S     core -8.853781 -14.76294 14.940990 -1.7528240 1.00000 0.00000             
S     core -8.853781 -17.73094 11.972990 -1.7528240 1.00000 0.00000             
S     core -11.82178 -14.76294 11.972990 -1.7528240 1.00000 0.00000             
Pb    core -11.82178 -14.76294 14.940990 1.75282400 1.00000 0.00000             
Pb    core -8.853781 -14.76294 11.972990 1.75282400 1.00000 0.00000             
S     core -8.853781 14.917060 -14.73901 -1.7528240 1.00000 0.00000             
S     core -11.82178 11.949060 -14.73901 -1.7528240 1.00000 0.00000             
S     core -8.853781 11.949060 -17.70701 -1.7528240 1.00000 0.00000             
Pb    core -11.82178 14.917060 -14.73901 1.75282400 1.00000 0.00000             
Pb    core -8.853781 11.949060 -14.73901 1.75282400 1.00000 0.00000             
S     core -8.853781 11.949060 29.780990 -1.7528240 1.00000 0.00000             
Pb    core -8.853781 14.917060 29.780990 1.75282400 1.00000 0.00000             
S     core -8.853781 20.853060 -8.803009 -1.7528240 1.00000 0.00000             
S     core -11.82178 17.885060 -8.803009 -1.7528240 1.00000 0.00000             
S     core -8.853781 17.885060 -11.77101 -1.7528240 1.00000 0.00000             
S     core -11.82178 20.853060 -11.77101 -1.7528240 1.00000 0.00000             
Pb    core -11.82178 20.853060 -8.803009 1.75282400 1.00000 0.00000             
Pb    core -8.853781 17.885060 -8.803009 1.75282400 1.00000 0.00000             
Pb    core -8.853781 20.853060 -11.77101 1.75282400 1.00000 0.00000             
Pb    core -11.82178 17.885060 -11.77101 1.75282400 1.00000 0.00000             
S     core -8.853781 20.853060 26.812990 -1.7528240 1.00000 0.00000             
S     core -8.853781 17.885060 23.844990 -1.7528240 1.00000 0.00000             
S     core -11.82178 20.853060 23.844990 -1.7528240 1.00000 0.00000             
Pb    core -8.853781 17.885060 26.812990 1.75282400 1.00000 0.00000             
Pb    core -8.853781 20.853060 23.844990 1.75282400 1.00000 0.00000             
Pb    core -11.82178 17.885060 23.844990 1.75282400 1.00000 0.00000             
S     core -8.853781 26.789060 -2.867009 -1.7528240 1.00000 0.00000             
S     core -11.82178 23.821060 -2.867009 -1.7528240 1.00000 0.00000             
S     core -8.853781 23.821060 -5.835009 -1.7528240 1.00000 0.00000             
Pb    core -11.82178 26.789060 -2.867009 1.75282400 1.00000 0.00000             
Pb    core -8.853781 23.821060 -2.867009 1.75282400 1.00000 0.00000             
Pb    core -8.853781 26.789060 -5.835009 1.75282400 1.00000 0.00000             
Pb    core -11.82178 23.821060 -5.835009 1.75282400 1.00000 0.00000             
S     core -8.853781 26.789060 20.876990 -1.7528240 1.00000 0.00000             
S     core -11.82178 23.821060 20.876990 -1.7528240 1.00000 0.00000             
S     core -8.853781 23.821060 17.908990 -1.7528240 1.00000 0.00000             
Pb    core -8.853781 23.821060 20.876990 1.75282400 1.00000 0.00000             
Pb    core -8.853781 26.789060 17.908990 1.75282400 1.00000 0.00000             
Pb    core -11.82178 23.821060 17.908990 1.75282400 1.00000 0.00000             
S     core -8.853781 29.757060 0.1009912 -1.7528240 1.00000 0.00000             
Pb    core -8.853781 29.757060 3.0689910 1.75282400 1.00000 0.00000             
S     core -8.853781 29.757060 11.972990 -1.7528240 1.00000 0.00000             
S     core -14.78978 8.9810560 -14.73901 -1.7528240 1.00000 0.00000             
Pb    core -14.78978 6.0130560 -14.73901 1.75282400 1.00000 0.00000             
S     core -14.78978 3.0450560 -8.803009 -1.7528240 1.00000 0.00000             
S     core -17.75778 0.0770557 -8.803009 -1.7528240 1.00000 0.00000             
S     core -14.78978 0.0770557 -11.77101 -1.7528240 1.00000 0.00000             
Pb    core -17.75778 3.0450560 -8.803009 1.75282400 1.00000 0.00000             
Pb    core -14.78978 0.0770557 -8.803009 1.75282400 1.00000 0.00000             
Pb    core -14.78978 3.0450560 -11.77101 1.75282400 1.00000 0.00000             
S     core -14.78978 3.0450560 26.812990 -1.7528240 1.00000 0.00000             
S     core -14.78978 0.0770557 23.844990 -1.7528240 1.00000 0.00000             
Pb    core -14.78978 3.0450560 23.844990 1.75282400 1.00000 0.00000             
S     core -14.78978 -2.890944 -2.867009 -1.7528240 1.00000 0.00000             
S     core -17.75778 -5.858944 -2.867009 -1.7528240 1.00000 0.00000             
S     core -14.78978 -5.858944 -5.835009 -1.7528240 1.00000 0.00000             
S     core -17.75778 -2.890944 -5.835009 -1.7528240 1.00000 0.00000             
Pb    core -17.75778 -2.890944 -2.867009 1.75282400 1.00000 0.00000             
Pb    core -14.78978 -5.858944 -2.867009 1.75282400 1.00000 0.00000             
Pb    core -14.78978 -2.890944 -5.835009 1.75282400 1.00000 0.00000             
Pb    core -17.75778 -5.858944 -5.835009 1.75282400 1.00000 0.00000             
S     core -14.78978 -2.890944 20.876990 -1.7528240 1.00000 0.00000             
S     core -14.78978 -5.858944 17.908990 -1.7528240 1.00000 0.00000             
S     core -17.75778 -2.890944 17.908990 -1.7528240 1.00000 0.00000             
Pb    core -14.78978 -5.858944 20.876990 1.75282400 1.00000 0.00000             
Pb    core -14.78978 -2.890944 17.908990 1.75282400 1.00000 0.00000             
Pb    core -17.75778 -5.858944 17.908990 1.75282400 1.00000 0.00000             
S     core -14.78978 -8.826944 3.0689910 -1.7528240 1.00000 0.00000             
S     core -14.78978 -11.79494 0.1009912 -1.7528240 1.00000 0.00000             
S     core -17.75778 -8.826944 0.1009912 -1.7528240 1.00000 0.00000             
Pb    core -17.75778 -8.826944 3.0689910 1.75282400 1.00000 0.00000             
Pb    core -14.78978 -11.79494 3.0689910 1.75282400 1.00000 0.00000             
Pb    core -14.78978 -8.826944 0.1009912 1.75282400 1.00000 0.00000             
S     core -14.78978 -8.826944 14.940990 -1.7528240 1.00000 0.00000             
S     core -14.78978 -11.79494 11.972990 -1.7528240 1.00000 0.00000             
S     core -17.75778 -8.826944 11.972990 -1.7528240 1.00000 0.00000             
Pb    core -14.78978 -11.79494 14.940990 1.75282400 1.00000 0.00000             
Pb    core -14.78978 -8.826944 11.972990 1.75282400 1.00000 0.00000             
S     core -14.78978 -14.76294 9.0049910 -1.7528240 1.00000 0.00000             
Pb    core -14.78978 -14.76294 6.0369910 1.75282400 1.00000 0.00000             
S     core -14.78978 14.917060 -8.803009 -1.7528240 1.00000 0.00000             
S     core -17.75778 11.949060 -8.803009 -1.7528240 1.00000 0.00000             
S     core -14.78978 11.949060 -11.77101 -1.7528240 1.00000 0.00000             
Pb    core -17.75778 14.917060 -8.803009 1.75282400 1.00000 0.00000             
Pb    core -14.78978 11.949060 -8.803009 1.75282400 1.00000 0.00000             
Pb    core -14.78978 14.917060 -11.77101 1.75282400 1.00000 0.00000             
S     core -14.78978 11.949060 23.844990 -1.7528240 1.00000 0.00000             
Pb    core -14.78978 14.917060 23.844990 1.75282400 1.00000 0.00000             
S     core -14.78978 20.853060 -2.867009 -1.7528240 1.00000 0.00000             
S     core -17.75778 17.885060 -2.867009 -1.7528240 1.00000 0.00000             
S     core -14.78978 17.885060 -5.835009 -1.7528240 1.00000 0.00000             
Pb    core -14.78978 17.885060 -2.867009 1.75282400 1.00000 0.00000             
Pb    core -14.78978 20.853060 -5.835009 1.75282400 1.00000 0.00000             
Pb    core -17.75778 17.885060 -5.835009 1.75282400 1.00000 0.00000             
S     core -14.78978 20.853060 20.876990 -1.7528240 1.00000 0.00000             
S     core -14.78978 17.885060 17.908990 -1.7528240 1.00000 0.00000             
Pb    core -14.78978 17.885060 20.876990 1.75282400 1.00000 0.00000             
Pb    core -14.78978 20.853060 17.908990 1.75282400 1.00000 0.00000             
Pb    core -17.75778 17.885060 17.908990 1.75282400 1.00000 0.00000             
S     core -14.78978 26.789060 3.0689910 -1.7528240 1.00000 0.00000             
S     core -14.78978 23.821060 0.1009912 -1.7528240 1.00000 0.00000             
Pb    core -14.78978 23.821060 3.0689910 1.75282400 1.00000 0.00000             
S     core -14.78978 23.821060 11.972990 -1.7528240 1.00000 0.00000             
Pb    core -14.78978 23.821060 14.940990 1.75282400 1.00000 0.00000             
S     core -20.72578 3.0450560 -2.867009 -1.7528240 1.00000 0.00000             
Pb    core -20.72578 0.0770557 -2.867009 1.75282400 1.00000 0.00000             
S     core -20.72578 -2.890944 3.0689910 -1.7528240 1.00000 0.00000             
Pb    core -20.72578 -2.890944 0.1009912 1.75282400 1.00000 0.00000             
S     core -20.72578 -2.890944 14.940990 -1.7528240 1.00000 0.00000             
Pb    core -20.72578 -2.890944 11.972990 1.75282400 1.00000 0.00000             
S     core -20.72578 14.917060 -2.867009 -1.7528240 1.00000 0.00000             
Pb    core -20.72578 11.949060 -2.867009 1.75282400 1.00000 0.00000             
Pb    core -20.72578 17.885060 3.0689910 1.75282400 1.00000 0.00000             
S     core 14.890220 -2.890944 -20.67501 -1.7528240 1.00000 0.00000             
Pb    core 11.922220 -2.890944 -20.67501 1.75282400 1.00000 0.00000             
S     core 14.890220 -8.826944 -14.73901 -1.7528240 1.00000 0.00000             
S     core 11.922220 -11.79494 -14.73901 -1.7528240 1.00000 0.00000             
S     core 11.922220 -8.826944 -17.70701 -1.7528240 1.00000 0.00000             
Pb    core 11.922220 -8.826944 -14.73901 1.75282400 1.00000 0.00000             
Pb    core 14.890220 -11.79494 -14.73901 1.75282400 1.00000 0.00000             
S     core 11.922220 -8.826944 29.780990 -1.7528240 1.00000 0.00000             
S     core 14.890220 -14.76294 -8.803009 -1.7528240 1.00000 0.00000             
S     core 11.922220 -17.73094 -8.803009 -1.7528240 1.00000 0.00000             
S     core 11.922220 -14.76294 -11.77101 -1.7528240 1.00000 0.00000             
Pb    core 11.922220 -14.76294 -8.803009 1.75282400 1.00000 0.00000             
Pb    core 14.890220 -14.76294 -11.77101 1.75282400 1.00000 0.00000             
S     core 11.922220 -14.76294 23.844990 -1.7528240 1.00000 0.00000             
Pb    core 14.890220 -14.76294 23.844990 1.75282400 1.00000 0.00000             
S     core 14.890220 -20.69894 -2.867009 -1.7528240 1.00000 0.00000             
Pb    core 11.922220 -20.69894 -2.867009 1.75282400 1.00000 0.00000             
S     core 11.922220 23.821060 -14.73901 -1.7528240 1.00000 0.00000             
Pb    core 14.890220 23.821060 -14.73901 1.75282400 1.00000 0.00000             
S     core 11.922220 29.757060 -8.803009 -1.7528240 1.00000 0.00000             
Pb    core 14.890220 29.757060 -8.803009 1.75282400 1.00000 0.00000             
Pb    core 17.858220 3.0450560 -20.67501 1.75282400 1.00000 0.00000             
S     core 20.826220 -2.890944 -14.73901 -1.7528240 1.00000 0.00000             
S     core 17.858220 -5.858944 -14.73901 -1.7528240 1.00000 0.00000             
S     core 17.858220 -2.890944 -17.70701 -1.7528240 1.00000 0.00000             
Pb    core 17.858220 -2.890944 -14.73901 1.75282400 1.00000 0.00000             
Pb    core 20.826220 -5.858944 -14.73901 1.75282400 1.00000 0.00000             
Pb    core 20.826220 -2.890944 -17.70701 1.75282400 1.00000 0.00000             
Pb    core 17.858220 -5.858944 -17.70701 1.75282400 1.00000 0.00000             
S     core 17.858220 -2.890944 29.780990 -1.7528240 1.00000 0.00000             