# 
# Keywords:
# 
conp opti  
# 
# Options:
# 
cartesian 
S     core -2.627344 -2.622957 -2.422081 -1.7528240 1.00000 0.00000             
S     core 2.9694363 -2.911952 -2.720635 -1.7528240 1.00000 0.00000             
Pb    core 0.1825973 -2.903584 -2.681295 1.75282400 1.00000 0.00000             
S     core -2.860278 2.9917027 -2.745073 -1.7528240 1.00000 0.00000             
Pb    core -2.843254 0.1477115 -2.685707 1.75282400 1.00000 0.00000             
S     core -2.863729 -2.847338 3.1926032 -1.7528240 1.00000 0.00000             
Pb    core -2.841050 -2.853201 0.3662724 1.75282400 1.00000 0.00000             
S     core -2.571489 -2.538700 14.678655 -1.7528240 1.00000 0.00000             
Pb    core -2.716820 -2.714160 11.930679 1.75282400 1.00000 0.00000             
S     core -2.552823 14.438715 -2.564798 -1.7528240 1.00000 0.00000             
Pb    core -2.797963 11.652717 -2.790541 1.75282400 1.00000 0.00000             
S     core 14.766114 -2.641390 -2.452565 -1.7528240 1.00000 0.00000             
Pb    core 11.902723 -2.854187 -2.649829 1.75282400 1.00000 0.00000             
S     core 8.9782355 -2.913993 -2.712348 -1.7528240 1.00000 0.00000             
Pb    core 6.1797539 -2.927865 -2.711157 1.75282400 1.00000 0.00000             
S     core 2.9821696 2.9350713 -2.874451 -1.7528240 1.00000 0.00000             
S     core -0.015158 -0.019813 -3.118693 -1.7528240 1.00000 0.00000             
S     core 3.0751384 0.2139198 -5.927281 -1.7528240 1.00000 0.00000             
S     core 0.2439840 3.0983791 -5.928113 -1.7528240 1.00000 0.00000             
Pb    core 0.0622046 2.9773326 -2.942443 1.75282400 1.00000 0.00000             
Pb    core 3.1062947 -0.070392 -2.931640 1.75282400 1.00000 0.00000             
Pb    core 3.1811681 3.0499145 -5.826349 1.75282400 1.00000 0.00000             
Pb    core 0.4111387 0.3838223 -5.925722 1.75282400 1.00000 0.00000             
S     core 3.3116642 0.2894775 18.008880 -1.7528240 1.00000 0.00000             
S     core 0.1373803 3.6275195 18.006353 -1.7528240 1.00000 0.00000             
Pb    core 2.9056175 3.0318456 18.095214 1.75282400 1.00000 0.00000             
S     core 2.9772637 -2.969376 3.1093435 -1.7528240 1.00000 0.00000             
S     core 0.2410648 -6.027616 3.3763388 -1.7528240 1.00000 0.00000             
S     core 3.0689700 -6.070433 0.4595403 -1.7528240 1.00000 0.00000             
S     core -0.015125 -3.268881 0.1895549 -1.7528240 1.00000 0.00000             
Pb    core 0.0603711 -3.057975 3.2162393 1.75282400 1.00000 0.00000             
Pb    core 3.1811504 -5.927391 3.3195766 1.75282400 1.00000 0.00000             
Pb    core 3.1088963 -3.098633 0.1433700 1.75282400 1.00000 0.00000             
Pb    core 0.4088131 -6.079369 0.6782271 1.75282400 1.00000 0.00000             
S     core 3.0956649 -2.830818 14.847540 -1.7528240 1.00000 0.00000             
S     core 3.2170854 -5.999734 11.778436 -1.7528240 1.00000 0.00000             
S     core 0.0931031 -3.170365 11.995489 -1.7528240 1.00000 0.00000             
Pb    core 0.2713201 -2.608360 15.059762 1.75282400 1.00000 0.00000             
Pb    core 3.1157171 -2.932623 12.040099 1.75282400 1.00000 0.00000             
Pb    core 0.5320812 -5.946639 11.698098 1.75282400 1.00000 0.00000             
S     core 3.0535586 14.727463 -2.849716 -1.7528240 1.00000 0.00000             
S     core 0.0544623 11.829075 -3.224122 -1.7528240 1.00000 0.00000             
S     core 3.1671985 11.578587 -5.998949 -1.7528240 1.00000 0.00000             
Pb    core 0.2328856 14.689741 -2.825218 1.75282400 1.00000 0.00000             
Pb    core 3.1011261 11.827669 -3.013028 1.75282400 1.00000 0.00000             
Pb    core 0.4786189 11.367605 -6.027832 1.75282400 1.00000 0.00000             
S     core 3.2228694 11.845284 17.960368 -1.7528240 1.00000 0.00000             
Pb    core 0.5429292 11.705431 17.984216 1.75282400 1.00000 0.00000             
S     core 0.2984928 17.946845 3.1242809 -1.7528240 1.00000 0.00000             
S     core 3.1851154 17.931804 0.2441191 -1.7528240 1.00000 0.00000             
Pb    core 3.1912920 17.831927 3.1321648 1.75282400 1.00000 0.00000             
Pb    core 0.4928068 17.958992 0.4299528 1.75282400 1.00000 0.00000             
S     core 3.0652714 18.037987 11.599203 -1.7528240 1.00000 0.00000             
Pb    core 0.3938660 18.061728 11.404438 1.75282400 1.00000 0.00000             
S     core -2.826004 8.8299277 -2.791618 -1.7528240 1.00000 0.00000             
Pb    core -2.821517 5.8880456 -2.788163 1.75282400 1.00000 0.00000             
S     core -2.933271 2.9910397 3.0845768 -1.7528240 1.00000 0.00000             
S     core -6.046096 0.2828553 3.3087564 -1.7528240 1.00000 0.00000             
S     core -3.309132 0.0128126 0.1683478 -1.7528240 1.00000 0.00000             
S     core -6.039879 3.1353549 0.3902896 -1.7528240 1.00000 0.00000             
Pb    core -5.881856 3.1310273 3.2634021 1.75282400 1.00000 0.00000             
Pb    core -3.023686 0.0160760 3.1960672 1.75282400 1.00000 0.00000             
Pb    core -3.021726 3.0066733 0.1385422 1.75282400 1.00000 0.00000             
Pb    core -6.085923 0.4253257 0.6083271 1.75282400 1.00000 0.00000             
S     core -2.891422 3.1270640 14.818489 -1.7528240 1.00000 0.00000             
S     core -3.261040 0.1082038 11.976201 -1.7528240 1.00000 0.00000             
S     core -6.055443 3.2297694 11.719832 -1.7528240 1.00000 0.00000             
Pb    core -2.662580 0.2715135 15.022161 1.75282400 1.00000 0.00000             
Pb    core -2.948406 3.0693292 12.014354 1.75282400 1.00000 0.00000             
Pb    core -6.012434 0.5155518 11.650479 1.75282400 1.00000 0.00000             
S     core -2.818217 -2.799080 9.0324101 -1.7528240 1.00000 0.00000             
Pb    core -2.809205 -2.856202 6.1429670 1.75282400 1.00000 0.00000             
S     core -2.822543 14.763430 3.0404445 -1.7528240 1.00000 0.00000             
S     core -5.999175 11.640870 3.2107267 -1.7528240 1.00000 0.00000             
S     core -3.240123 11.854611 0.0686609 -1.7528240 1.00000 0.00000             
Pb    core -2.998553 11.876650 3.1029052 1.75282400 1.00000 0.00000             
Pb    core -2.793083 14.713858 0.2150935 1.75282400 1.00000 0.00000             
Pb    core -6.034190 11.431399 0.5115909 1.75282400 1.00000 0.00000             
S     core -2.570172 14.609411 14.498465 -1.7528240 1.00000 0.00000             
S     core -3.250400 11.957047 11.917535 -1.7528240 1.00000 0.00000             
Pb    core -2.781144 11.810929 14.798804 1.75282400 1.00000 0.00000             
Pb    core -2.818269 14.799215 11.723342 1.75282400 1.00000 0.00000             
Pb    core -6.033467 11.497768 11.528654 1.75282400 1.00000 0.00000             
S     core 14.927278 3.0458686 -2.727620 -1.7528240 1.00000 0.00000             
S     core 11.967162 0.0641863 -2.655530 -1.7528240 1.00000 0.00000             
S     core 11.841169 3.4676166 -5.954378 -1.7528240 1.00000 0.00000             
Pb    core 12.037665 2.8663737 -3.216809 1.75282400 1.00000 0.00000             
Pb    core 14.760662 0.1173960 -2.776510 1.75282400 1.00000 0.00000             
S     core 11.824809 3.6233041 18.019155 -1.7528240 1.00000 0.00000             
S     core 14.939091 -2.797948 3.2201610 -1.7528240 1.00000 0.00000             
S     core 11.857996 -6.051337 3.6883517 -1.7528240 1.00000 0.00000             
S     core 11.967354 -2.790383 0.2503197 -1.7528240 1.00000 0.00000             
Pb    core 12.045487 -3.326721 3.0824164 1.75282400 1.00000 0.00000             
Pb    core 14.759382 -2.928614 0.3212698 1.75282400 1.00000 0.00000             
S     core 14.583149 -2.509887 14.687893 -1.7528240 1.00000 0.00000             
S     core 11.911320 -3.134764 12.046462 -1.7528240 1.00000 0.00000             
Pb    core 11.756515 -2.572591 15.062510 1.75282400 1.00000 0.00000             
Pb    core 14.743315 -2.696167 11.927930 1.75282400 1.00000 0.00000             
Pb    core 11.463253 -5.916227 11.817228 1.75282400 1.00000 0.00000             
S     core 14.517211 14.535053 -2.603303 -1.7528240 1.00000 0.00000             
S     core 11.903646 11.931290 -3.249561 -1.7528240 1.00000 0.00000             
Pb    core 11.741840 14.759945 -2.839960 1.75282400 1.00000 0.00000             
Pb    core 14.782619 11.732970 -2.831599 1.75282400 1.00000 0.00000             
Pb    core 11.452451 11.548633 -6.055269 1.75282400 1.00000 0.00000             
Pb    core 11.473151 11.736435 17.967343 1.75282400 1.00000 0.00000             
S     core 11.663500 17.994908 3.0160373 -1.7528240 1.00000 0.00000             
Pb    core 11.470834 18.004121 0.3445240 1.75282400 1.00000 0.00000             
S     core 18.093722 0.3342321 3.2898231 -1.7528240 1.00000 0.00000             
S     core 18.081207 3.1642366 0.3910770 -1.7528240 1.00000 0.00000             
Pb    core 17.902135 3.1531294 3.2285167 1.75282400 1.00000 0.00000             
Pb    core 18.047212 0.4208357 0.5585304 1.75282400 1.00000 0.00000             
S     core 18.051752 3.2731271 11.711338 -1.7528240 1.00000 0.00000             
Pb    core 18.015682 0.5584610 11.613814 1.75282400 1.00000 0.00000             
S     core 17.996589 11.687865 3.1686235 -1.7528240 1.00000 0.00000             
Pb    core 18.010213 11.456389 0.4758633 1.75282400 1.00000 0.00000             
Pb    core 18.005773 11.580460 11.480304 1.75282400 1.00000 0.00000             
S     core 9.0078582 2.9858975 -2.899383 -1.7528240 1.00000 0.00000             
S     core 5.9313617 -0.058115 -2.913720 -1.7528240 1.00000 0.00000             
S     core 8.5188796 0.1457475 -5.911113 -1.7528240 1.00000 0.00000             
S     core 5.9656579 3.0425495 -5.838195 -1.7528240 1.00000 0.00000             
Pb    core 6.1389471 2.8636460 -2.903573 1.75282400 1.00000 0.00000             
Pb    core 9.1353685 -0.103487 -3.159333 1.75282400 1.00000 0.00000             
Pb    core 9.1385881 2.8186963 -5.989372 1.75282400 1.00000 0.00000             
Pb    core 5.8893720 0.1661286 -5.910994 1.75282400 1.00000 0.00000             
S     core 8.6250921 0.2943828 18.018799 -1.7528240 1.00000 0.00000             
S     core 5.9630120 3.2228232 17.988556 -1.7528240 1.00000 0.00000             
Pb    core 9.0822798 3.0302625 18.096962 1.75282400 1.00000 0.00000             
Pb    core 5.9735944 0.3888391 18.153659 1.75282400 1.00000 0.00000             
S     core 9.0168597 -2.983819 3.1397432 -1.7528240 1.00000 0.00000             
S     core 5.9652553 -5.934348 3.2829419 -1.7528240 1.00000 0.00000             
S     core 8.5174481 -6.083242 0.3872256 -1.7528240 1.00000 0.00000             
S     core 5.9346348 -3.061660 0.1371894 -1.7528240 1.00000 0.00000             
Pb    core 6.1415808 -3.009829 3.0801230 1.75282400 1.00000 0.00000             
Pb    core 9.1389857 -6.111561 3.0853874 1.75282400 1.00000 0.00000             
Pb    core 9.1431470 -3.352026 0.1142447 1.75282400 1.00000 0.00000             
Pb    core 5.8866489 -6.077732 0.4408131 1.75282400 1.00000 0.00000             
S     core 8.9157145 -2.815757 14.861240 -1.7528240 1.00000 0.00000             
S     core 8.7639290 -5.989928 11.834702 -1.7528240 1.00000 0.00000             
S     core 6.0016892 -2.955374 12.004760 -1.7528240 1.00000 0.00000             
Pb    core 6.0207832 -2.704407 14.972932 1.75282400 1.00000 0.00000             
Pb    core 8.9183940 -2.919453 12.045793 1.75282400 1.00000 0.00000             
Pb    core 6.0020338 -5.883244 11.845864 1.75282400 1.00000 0.00000             
S     core 8.9009861 14.777933 -2.865794 -1.7528240 1.00000 0.00000             
S     core 5.9808124 11.883276 -3.010887 -1.7528240 1.00000 0.00000             
S     core 8.7420032 11.675518 -6.017420 -1.7528240 1.00000 0.00000             
Pb    core 5.9978604 14.747457 -2.863283 1.75282400 1.00000 0.00000             
Pb    core 8.8987374 11.870622 -3.025279 1.75282400 1.00000 0.00000             
Pb    core 5.9689239 11.580663 -5.975300 1.75282400 1.00000 0.00000             
S     core 8.7703122 11.811348 17.998498 -1.7528240 1.00000 0.00000             
Pb    core 6.0169402 11.791651 17.923694 1.75282400 1.00000 0.00000             
S     core 5.9871761 17.828073 3.0844745 -1.7528240 1.00000 0.00000             
S     core 8.7616003 17.963340 0.2054483 -1.7528240 1.00000 0.00000             
Pb    core 8.8151721 17.863703 3.1176937 1.75282400 1.00000 0.00000             
Pb    core 5.9865495 17.908986 0.2566716 1.75282400 1.00000 0.00000             
S     core 8.5007552 17.992815 11.750587 -1.7528240 1.00000 0.00000             
Pb    core 5.8655499 18.034138 11.643539 1.75282400 1.00000 0.00000             
S     core 3.0128342 8.8882924 -2.902577 -1.7528240 1.00000 0.00000             
S     core 0.0355738 5.9038581 -2.954318 -1.7528240 1.00000 0.00000             
S     core 3.1386765 5.8894248 -5.826828 -1.7528240 1.00000 0.00000             
S     core 0.2909874 8.6766805 -5.970226 -1.7528240 1.00000 0.00000             
Pb    core 0.0770209 8.7847951 -2.985863 1.75282400 1.00000 0.00000             
Pb    core 3.1046376 5.8574735 -2.853943 1.75282400 1.00000 0.00000             
Pb    core 3.1894614 8.6814428 -5.859247 1.75282400 1.00000 0.00000             
Pb    core 0.3221377 5.8708004 -5.923235 1.75282400 1.00000 0.00000             
S     core 3.1429305 6.1321826 17.923651 -1.7528240 1.00000 0.00000             
S     core 0.3087579 9.0391460 17.983691 -1.7528240 1.00000 0.00000             
Pb    core 3.2067146 8.9234840 17.883744 1.75282400 1.00000 0.00000             
Pb    core 0.3352762 6.2495674 18.058138 1.75282400 1.00000 0.00000             
S     core 3.0017237 2.9705039 3.0283014 -1.7528240 1.00000 0.00000             
S     core -0.040079 -0.029238 3.0425132 -1.7528240 1.00000 0.00000             
S     core 2.9196270 -0.050540 0.0804890 -1.7528240 1.00000 0.00000             
S     core -0.032959 2.9055898 0.0613805 -1.7528240 1.00000 0.00000             
Pb    core 0.0796717 2.9418457 3.0630361 1.75282400 1.00000 0.00000             
Pb    core 3.0770455 -0.038035 3.0602993 1.75282400 1.00000 0.00000             
Pb    core 3.0768291 2.9001489 0.0724871 1.75282400 1.00000 0.00000             
Pb    core 0.0766210 -0.037555 0.1433356 1.75282400 1.00000 0.00000             
S     core 3.0204399 3.1046423 14.949187 -1.7528240 1.00000 0.00000             
S     core 0.1096250 0.1764774 14.716155 -1.7528240 1.00000 0.00000             
S     core 3.0433990 0.0556608 11.898762 -1.7528240 1.00000 0.00000             
S     core 0.0080581 3.0760036 11.892199 -1.7528240 1.00000 0.00000             
Pb    core 0.0649156 3.0156941 15.293902 1.75282400 1.00000 0.00000             
Pb    core 3.0155426 0.0945900 15.249735 1.75282400 1.00000 0.00000             
Pb    core 3.0309277 3.0009830 12.065043 1.75282400 1.00000 0.00000             
Pb    core 0.1644318 0.1291508 11.940891 1.75282400 1.00000 0.00000             
S     core 3.0216483 -2.903144 9.0175226 -1.7528240 1.00000 0.00000             
S     core 0.3025629 -5.988492 8.9618427 -1.7528240 1.00000 0.00000             
S     core 3.1449793 -5.882251 6.1277057 -1.7528240 1.00000 0.00000             
S     core 0.0379621 -3.009703 6.1012060 -1.7528240 1.00000 0.00000             
Pb    core 0.0921935 -3.003336 9.0309674 1.75282400 1.00000 0.00000             
Pb    core 3.2108099 -5.868837 8.9491749 1.75282400 1.00000 0.00000             
Pb    core 3.1111688 -2.912329 6.0756419 1.75282400 1.00000 0.00000             
Pb    core 0.3351972 -5.983685 6.1758509 1.75282400 1.00000 0.00000             
S     core 3.0140514 14.872712 2.9814996 -1.7528240 1.00000 0.00000             
S     core -0.003744 11.948988 2.9547304 -1.7528240 1.00000 0.00000             
S     core 2.9618008 11.930563 -0.008816 -1.7528240 1.00000 0.00000             
S     core 0.0587325 15.152402 0.0294357 -1.7528240 1.00000 0.00000             
Pb    core 0.0755638 14.954298 3.0666660 1.75282400 1.00000 0.00000             
Pb    core 3.0419543 11.898365 3.0173983 1.75282400 1.00000 0.00000             
Pb    core 3.1030100 14.933296 0.0380827 1.75282400 1.00000 0.00000             
Pb    core 0.0796800 11.847648 0.0598802 1.75282400 1.00000 0.00000             
S     core 3.0405535 14.903424 14.757956 -1.7528240 1.00000 0.00000             
S     core 0.0652119 12.041762 15.155149 -1.7528240 1.00000 0.00000             
S     core 2.9493937 12.039396 11.951943 -1.7528240 1.00000 0.00000             
S     core 0.0160758 15.261720 11.860061 -1.7528240 1.00000 0.00000             
Pb    core 0.2311868 14.882406 14.731366 1.75282400 1.00000 0.00000             
Pb    core 3.1326225 12.013203 14.977076 1.75282400 1.00000 0.00000             
Pb    core 3.0900754 15.044415 11.890531 1.75282400 1.00000 0.00000             
Pb    core 0.0838215 11.957529 11.941459 1.75282400 1.00000 0.00000             
S     core 0.2522953 18.003255 8.6965642 -1.7528240 1.00000 0.00000             
S     core 3.1393180 17.843430 5.9287250 -1.7528240 1.00000 0.00000             
Pb    core 3.1709187 17.890288 8.7550358 1.75282400 1.00000 0.00000             
Pb    core 0.3158408 17.940976 5.9237150 1.75282400 1.00000 0.00000             
S     core -2.914350 8.9279778 3.0423612 -1.7528240 1.00000 0.00000             
S     core -5.852319 5.9587945 3.1973510 -1.7528240 1.00000 0.00000             
S     core -3.015107 5.9277417 0.0883103 -1.7528240 1.00000 0.00000             
S     core -6.004396 8.7310121 0.3436715 -1.7528240 1.00000 0.00000             
Pb    core -5.864058 8.7664781 3.2168625 1.75282400 1.00000 0.00000             
Pb    core -2.857036 5.9357339 3.0974806 1.75282400 1.00000 0.00000             
Pb    core -3.001466 8.8169942 0.0916718 1.75282400 1.00000 0.00000             
Pb    core -5.966970 5.9237637 0.3613103 1.75282400 1.00000 0.00000             
S     core -2.823306 8.9982128 14.822589 -1.7528240 1.00000 0.00000             
S     core -2.999654 6.0268872 11.982868 -1.7528240 1.00000 0.00000             
S     core -6.012907 8.8086103 11.700919 -1.7528240 1.00000 0.00000             
Pb    core -2.750064 5.9665177 14.928158 1.75282400 1.00000 0.00000             
Pb    core -2.987788 8.8952228 11.976239 1.75282400 1.00000 0.00000             
Pb    core -5.924303 5.9953254 11.778281 1.75282400 1.00000 0.00000             
S     core -2.921902 3.0406161 8.9916145 -1.7528240 1.00000 0.00000             
S     core -6.033280 0.3204222 8.9063063 -1.7528240 1.00000 0.00000             
S     core -3.027433 0.0329122 6.0803671 -1.7528240 1.00000 0.00000             
S     core -5.862165 3.1303608 6.0663835 -1.7528240 1.00000 0.00000             
Pb    core -5.869920 3.1684686 8.9056065 1.75282400 1.00000 0.00000             
Pb    core -3.000768 0.0632327 9.0213192 1.75282400 1.00000 0.00000             
Pb    core -2.859319 3.0086629 6.0726335 1.75282400 1.00000 0.00000             
Pb    core -5.968225 0.2744771 6.1227030 1.75282400 1.00000 0.00000             
S     core -2.841248 14.815329 8.8795222 -1.7528240 1.00000 0.00000             
S     core -6.008332 11.684004 8.8115387 -1.7528240 1.00000 0.00000             
S     core -3.003581 11.928784 5.9942068 -1.7528240 1.00000 0.00000             
Pb    core -3.001542 11.920385 8.9176242 1.75282400 1.00000 0.00000             
Pb    core -2.821501 14.799866 5.9783884 1.75282400 1.00000 0.00000             
Pb    core -5.958578 11.659942 6.0205094 1.75282400 1.00000 0.00000             
S     core 14.815849 8.9273251 -2.831669 -1.7528240 1.00000 0.00000             
S     core 11.965855 6.0337755 -2.964913 -1.7528240 1.00000 0.00000             
S     core 11.660752 8.8855343 -6.012735 -1.7528240 1.00000 0.00000             
Pb    core 11.944264 8.8666247 -3.023213 1.75282400 1.00000 0.00000             
Pb    core 14.807398 5.8666271 -2.839990 1.75282400 1.00000 0.00000             
Pb    core 11.711165 6.0876325 -5.995627 1.75282400 1.00000 0.00000             
S     core 11.672885 9.0421692 18.003609 -1.7528240 1.00000 0.00000             
Pb    core 11.673706 6.2548310 18.043560 1.75282400 1.00000 0.00000             
S     core 14.951447 3.0537886 3.0967639 -1.7528240 1.00000 0.00000             
S     core 12.030577 0.1118702 3.1431072 -1.7528240 1.00000 0.00000             
S     core 15.312093 0.0626750 0.1855517 -1.7528240 1.00000 0.00000             
S     core 12.021073 3.0458065 0.1499803 -1.7528240 1.00000 0.00000             
Pb    core 11.973878 2.9985757 3.0698228 1.75282400 1.00000 0.00000             
Pb    core 15.014830 0.0176175 3.1348056 1.75282400 1.00000 0.00000             
Pb    core 15.011034 2.9890632 0.0995971 1.75282400 1.00000 0.00000             
Pb    core 11.906036 0.0462538 0.1905491 1.75282400 1.00000 0.00000             
S     core 14.882527 3.1669462 14.815546 -1.7528240 1.00000 0.00000             
S     core 11.889138 0.2085980 14.735454 -1.7528240 1.00000 0.00000             
S     core 15.261878 0.1364252 11.986090 -1.7528240 1.00000 0.00000             
S     core 11.987800 3.0973841 11.908235 -1.7528240 1.00000 0.00000             
Pb    core 11.953700 3.0506042 15.289886 1.75282400 1.00000 0.00000             
Pb    core 14.680642 0.3091443 14.993288 1.75282400 1.00000 0.00000             
Pb    core 14.973225 3.1094480 11.998060 1.75282400 1.00000 0.00000             
Pb    core 11.875467 0.1498178 11.947833 1.75282400 1.00000 0.00000             
S     core 14.836110 -2.781851 9.0573021 -1.7528240 1.00000 0.00000             
S     core 11.697372 -5.984119 9.1113434 -1.7528240 1.00000 0.00000             
S     core 11.980018 -2.991400 6.1674316 -1.7528240 1.00000 0.00000             
Pb    core 11.953708 -2.999126 9.0489400 1.75282400 1.00000 0.00000             
Pb    core 14.819258 -2.864139 6.0770290 1.75282400 1.00000 0.00000             
Pb    core 11.727298 -6.031940 6.3270698 1.75282400 1.00000 0.00000             
S     core 14.809060 14.822007 3.0057794 -1.7528240 1.00000 0.00000             
S     core 11.984038 11.994596 2.9193973 -1.7528240 1.00000 0.00000             
S     core 15.216302 11.928083 0.0244830 -1.7528240 1.00000 0.00000             
S     core 11.906229 15.198710 -0.007583 -1.7528240 1.00000 0.00000             
Pb    core 11.935463 14.998964 3.0451263 1.75282400 1.00000 0.00000             
Pb    core 15.006129 11.937544 3.0863277 1.75282400 1.00000 0.00000             
Pb    core 14.786030 14.777902 0.1907833 1.75282400 1.00000 0.00000             
Pb    core 11.943091 11.901518 0.0377832 1.75282400 1.00000 0.00000             
S     core 14.602142 14.635604 14.552496 -1.7528240 1.00000 0.00000             
S     core 11.915441 12.019400 15.181100 -1.7528240 1.00000 0.00000             
S     core 15.243215 11.962410 11.897312 -1.7528240 1.00000 0.00000             
S     core 11.898758 14.733050 11.841390 -1.7528240 1.00000 0.00000             
Pb    core 11.787099 14.991547 14.638653 1.75282400 1.00000 0.00000             
Pb    core 14.752682 11.868259 14.740525 1.75282400 1.00000 0.00000             
Pb    core 14.703244 14.950530 11.738756 1.75282400 1.00000 0.00000             
Pb    core 11.895292 11.928246 11.886478 1.75282400 1.00000 0.00000             
S     core 11.814578 17.976950 8.4448080 -1.7528240 1.00000 0.00000             
Pb    core 11.702280 18.007375 5.8108585 1.75282400 1.00000 0.00000             
S     core 17.862613 6.0044059 3.1722178 -1.7528240 1.00000 0.00000             
S     core 18.002181 8.7658701 0.3061059 -1.7528240 1.00000 0.00000             
Pb    core 17.872921 8.8016486 3.1791927 1.75282400 1.00000 0.00000             
Pb    core 17.957022 5.9309465 0.3197413 1.75282400 1.00000 0.00000             
S     core 18.018462 8.8646382 11.678672 -1.7528240 1.00000 0.00000             
Pb    core 17.937915 6.0511298 11.738392 1.75282400 1.00000 0.00000             
S     core 18.046705 0.3561768 8.8876703 -1.7528240 1.00000 0.00000             
S     core 17.874214 3.1690835 6.0558142 -1.7528240 1.00000 0.00000             
Pb    core 17.887837 3.2023530 8.8750707 1.75282400 1.00000 0.00000             
Pb    core 17.970491 0.2942794 6.0753607 1.75282400 1.00000 0.00000             
S     core 18.036668 11.696647 8.7645612 -1.7528240 1.00000 0.00000             
Pb    core 17.946383 11.706777 5.9874296 1.75282400 1.00000 0.00000             
S     core 8.9623896 8.9528086 -2.930607 -1.7528240 1.00000 0.00000             
S     core 5.9995570 5.9299874 -2.847053 -1.7528240 1.00000 0.00000             
S     core 8.8614276 5.9704011 -5.880105 -1.7528240 1.00000 0.00000             
S     core 5.9820281 8.7620197 -5.851109 -1.7528240 1.00000 0.00000             
Pb    core 6.0333007 8.8249623 -2.877756 1.75282400 1.00000 0.00000             
Pb    core 9.0294304 5.8368773 -2.935289 1.75282400 1.00000 0.00000             
Pb    core 8.8127473 8.7537891 -5.886279 1.75282400 1.00000 0.00000             
Pb    core 6.0740574 5.8225666 -5.831440 1.75282400 1.00000 0.00000             
S     core 8.8379559 6.1196960 17.929188 -1.7528240 1.00000 0.00000             
S     core 5.9915080 8.9609329 17.860444 -1.7528240 1.00000 0.00000             
Pb    core 8.8089037 8.9202488 17.896660 1.75282400 1.00000 0.00000             
Pb    core 6.0023322 5.9883958 17.924666 1.75282400 1.00000 0.00000             
S     core 8.9931562 3.0213357 3.0489395 -1.7528240 1.00000 0.00000             
S     core 5.9868745 0.0016971 3.0621467 -1.7528240 1.00000 0.00000             
S     core 8.9495744 0.0493056 0.1484611 -1.7528240 1.00000 0.00000             
S     core 5.9834287 2.9658925 0.0704497 -1.7528240 1.00000 0.00000             
Pb    core 6.0710750 2.9329669 3.0289014 1.75282400 1.00000 0.00000             
Pb    core 9.0840711 -0.079478 3.0371341 1.75282400 1.00000 0.00000             
Pb    core 9.0773637 2.9073154 0.0194898 1.75282400 1.00000 0.00000             
Pb    core 6.1162444 -0.089213 0.0738514 1.75282400 1.00000 0.00000             
S     core 8.9544235 3.1093354 14.959069 -1.7528240 1.00000 0.00000             
S     core 5.9882693 0.1198433 14.985085 -1.7528240 1.00000 0.00000             
S     core 8.9573328 0.0631743 11.909168 -1.7528240 1.00000 0.00000             
S     core 5.9905918 3.0722354 11.963418 -1.7528240 1.00000 0.00000             
Pb    core 6.0062863 3.0377942 15.072347 1.75282400 1.00000 0.00000             
Pb    core 9.0020868 0.1093840 15.264295 1.75282400 1.00000 0.00000             
Pb    core 9.0052134 3.0067800 12.063498 1.75282400 1.00000 0.00000             
Pb    core 6.0204089 0.0938271 12.056789 1.75282400 1.00000 0.00000             
S     core 8.9849597 -2.913595 9.0403673 -1.7528240 1.00000 0.00000             
S     core 6.0063915 -5.837969 8.9643667 -1.7528240 1.00000 0.00000             
S     core 8.8805901 -5.928176 6.1607891 -1.7528240 1.00000 0.00000             
S     core 6.0070341 -2.879971 6.0693987 -1.7528240 1.00000 0.00000             
Pb    core 6.0442044 -2.866152 9.0355696 1.75282400 1.00000 0.00000             
Pb    core 8.8362894 -5.880845 8.9827050 1.75282400 1.00000 0.00000             
Pb    core 9.0324932 -2.981526 6.0278655 1.75282400 1.00000 0.00000             
Pb    core 6.0828721 -5.876498 6.0837739 1.75282400 1.00000 0.00000             
S     core 8.9582198 14.908581 2.9633413 -1.7528240 1.00000 0.00000             
S     core 5.9869920 11.923441 2.9701561 -1.7528240 1.00000 0.00000             
S     core 9.0098637 11.971711 -0.025593 -1.7528240 1.00000 0.00000             
S     core 5.9846994 14.945536 0.0048929 -1.7528240 1.00000 0.00000             
Pb    core 6.0262889 14.846485 3.0461242 1.75282400 1.00000 0.00000             
Pb    core 9.0053478 11.935323 3.0200905 1.75282400 1.00000 0.00000             
Pb    core 8.9017348 14.963259 0.0318122 1.75282400 1.00000 0.00000             
Pb    core 6.0218246 11.881556 0.0386632 1.75282400 1.00000 0.00000             
S     core 8.9221728 14.844684 14.838122 -1.7528240 1.00000 0.00000             
S     core 5.9917369 12.025621 14.962753 -1.7528240 1.00000 0.00000             
S     core 8.9549412 11.939385 11.958911 -1.7528240 1.00000 0.00000             
S     core 5.9368225 15.007981 11.903388 -1.7528240 1.00000 0.00000             
Pb    core 6.0722539 14.913902 14.757425 1.75282400 1.00000 0.00000             
Pb    core 8.9350061 12.005374 14.959990 1.75282400 1.00000 0.00000             
Pb    core 9.0357096 15.241452 11.935840 1.75282400 1.00000 0.00000             
Pb    core 6.0451494 12.002969 11.939993 1.75282400 1.00000 0.00000             
S     core 5.9672401 17.901794 8.7963526 -1.7528240 1.00000 0.00000             
S     core 8.8547271 17.890473 5.9150260 -1.7528240 1.00000 0.00000             
Pb    core 9.1013414 18.042638 9.0406049 1.75282400 1.00000 0.00000             
Pb    core 6.0622805 17.848343 6.0048700 1.75282400 1.00000 0.00000             
S     core 3.0007642 8.9592678 3.0017658 -1.7528240 1.00000 0.00000             
S     core 0.0501382 5.9625632 3.0180558 -1.7528240 1.00000 0.00000             
S     core 2.9878401 5.9418134 0.0720516 -1.7528240 1.00000 0.00000             
S     core -0.006208 8.9566590 0.0190574 -1.7528240 1.00000 0.00000             
Pb    core 0.0745543 8.9205879 3.0356124 1.75282400 1.00000 0.00000             
Pb    core 3.0708852 5.9255706 3.0475032 1.75282400 1.00000 0.00000             
Pb    core 3.0458489 8.8879520 0.0591471 1.75282400 1.00000 0.00000             
Pb    core 0.0727225 5.8942086 0.0794331 1.75282400 1.00000 0.00000             
S     core 3.0139786 9.0780904 14.916288 -1.7528240 1.00000 0.00000             
S     core 0.0671024 6.1229901 14.980404 -1.7528240 1.00000 0.00000             
S     core 3.0066819 6.0608141 11.954989 -1.7528240 1.00000 0.00000             
S     core -0.007648 9.0827903 11.973338 -1.7528240 1.00000 0.00000             
Pb    core 0.0863865 8.9691020 15.020654 1.75282400 1.00000 0.00000             