# 
# Keywords:
# 
conp opti  
# 
# Options:
# 
cartesian 
S     core 2.7774451 3.7581554 3.6769970 -1.7528240 1.00000 0.00000             
S     core 0.1413771 0.8293271 4.0292732 -1.7528240 1.00000 0.00000             
S     core 2.4005729 0.3429514 0.7880406 -1.7528240 1.00000 0.00000             
S     core -0.452353 4.2861329 1.0783751 -1.7528240 1.00000 0.00000             
Pb    core -0.334642 3.4771719 3.6337470 1.75282400 1.00000 0.00000             
Pb    core 2.5716804 -0.552458 3.4206549 1.75282400 1.00000 0.00000             
Pb    core 1.9077526 3.0093783 0.6539246 1.75282400 1.00000 0.00000             
S     core -0.792943 4.4601172 12.040928 -1.7528240 1.00000 0.00000             
Pb    core 1.7199111 5.0974431 11.739710 1.75282400 1.00000 0.00000             
S     core 1.3376395 12.842323 3.9718509 -1.7528240 1.00000 0.00000             
Pb    core 3.9474373 12.474936 3.9053092 1.75282400 1.00000 0.00000             
S     core 4.7073907 12.042420 12.111524 -1.7528240 1.00000 0.00000             
S     core 11.055533 0.0471784 2.6812837 -1.7528240 1.00000 0.00000             
S     core 10.632397 3.0228990 -0.402228 -1.7528240 1.00000 0.00000             
Pb    core 11.400411 2.5233925 2.1418530 1.75282400 1.00000 0.00000             
S     core 12.325094 10.852740 2.9021437 -1.7528240 1.00000 0.00000             
S     core 8.2628012 2.9568525 3.3270907 -1.7528240 1.00000 0.00000             
S     core 5.7098947 0.4846274 2.8716171 -1.7528240 1.00000 0.00000             
S     core 7.3627345 0.2215690 -0.719005 -1.7528240 1.00000 0.00000             
S     core 5.2110273 3.2736062 0.1203645 -1.7528240 1.00000 0.00000             
Pb    core 5.3981245 3.2395043 2.8965459 1.75282400 1.00000 0.00000             
Pb    core 8.4246343 0.3504134 1.7578105 1.75282400 1.00000 0.00000             
Pb    core 7.9407791 2.8374365 -1.044776 1.75282400 1.00000 0.00000             
Pb    core 4.8764018 0.2317220 0.0074960 1.75282400 1.00000 0.00000             
S     core 5.9996171 3.8307237 12.650794 -1.7528240 1.00000 0.00000             
Pb    core 8.2682079 2.8020106 11.657752 1.75282400 1.00000 0.00000             
Pb    core 4.7387212 1.7531421 13.518368 1.75282400 1.00000 0.00000             
S     core 4.6270445 -2.106065 7.2885138 -1.7528240 1.00000 0.00000             
S     core 6.8779543 12.259853 3.1249663 -1.7528240 1.00000 0.00000             
Pb    core 9.7843706 11.470786 3.2657229 1.75282400 1.00000 0.00000             
Pb    core 6.3755732 12.286330 0.4621671 1.75282400 1.00000 0.00000             
Pb    core 6.7161001 11.251956 13.937124 1.75282400 1.00000 0.00000             
S     core 3.5846864 9.7616363 3.4878884 -1.7528240 1.00000 0.00000             
S     core 0.1405865 7.2339430 3.8436259 -1.7528240 1.00000 0.00000             
S     core 2.7057236 6.6851956 0.6053154 -1.7528240 1.00000 0.00000             
S     core 0.1814385 9.6061190 0.9279051 -1.7528240 1.00000 0.00000             
Pb    core 0.2591314 10.085545 3.6152305 1.75282400 1.00000 0.00000             
Pb    core 2.8383622 6.4992232 3.4259464 1.75282400 1.00000 0.00000             
Pb    core 2.7996767 9.3557496 0.6026169 1.75282400 1.00000 0.00000             
Pb    core -0.335740 6.9004219 0.9628517 1.75282400 1.00000 0.00000             
S     core 3.6536757 6.8940332 12.247398 -1.7528240 1.00000 0.00000             
S     core 0.5428990 9.5326038 12.143012 -1.7528240 1.00000 0.00000             
Pb    core 3.1759541 9.7450300 12.108247 1.75282400 1.00000 0.00000             
Pb    core -1.312606 7.4185096 12.350561 1.75282400 1.00000 0.00000             
S     core 3.0541736 3.6280887 9.7972817 -1.7528240 1.00000 0.00000             
S     core 2.6629586 1.0683242 7.1968312 -1.7528240 1.00000 0.00000             
S     core -0.252244 3.8093038 6.9779577 -1.7528240 1.00000 0.00000             
Pb    core -1.468327 4.7625439 9.3676333 1.75282400 1.00000 0.00000             
Pb    core 3.1311778 0.9545023 9.6881643 1.75282400 1.00000 0.00000             
Pb    core 2.7073691 3.6113293 6.4413455 1.75282400 1.00000 0.00000             
Pb    core 0.0211433 0.8399304 6.5954556 1.75282400 1.00000 0.00000             
S     core 4.2268306 12.576762 6.7133750 -1.7528240 1.00000 0.00000             
Pb    core 4.8292650 12.384946 9.5437993 1.75282400 1.00000 0.00000             
Pb    core 1.1873605 12.714615 6.5604755 1.75282400 1.00000 0.00000             
S     core -2.755484 8.0938150 10.150939 -1.7528240 1.00000 0.00000             
S     core 11.527906 5.3457184 2.3746851 -1.7528240 1.00000 0.00000             
S     core 11.161653 8.1922956 -0.494997 -1.7528240 1.00000 0.00000             
Pb    core 12.087506 8.3286716 2.0086008 1.75282400 1.00000 0.00000             
Pb    core 11.058034 5.5668920 -0.664988 1.75282400 1.00000 0.00000             
Pb    core 12.433375 4.2296087 12.101441 1.75282400 1.00000 0.00000             
S     core 11.351952 2.3906311 5.7707791 -1.7528240 1.00000 0.00000             
Pb    core 11.766826 2.3938923 8.4487361 1.75282400 1.00000 0.00000             
Pb    core 10.468273 -0.337306 5.1656455 1.75282400 1.00000 0.00000             
Pb    core 13.110137 10.617928 5.3967751 1.75282400 1.00000 0.00000             
S     core 9.0287375 8.7609044 2.8669386 -1.7528240 1.00000 0.00000             
S     core 5.8691054 6.2370509 3.2251538 -1.7528240 1.00000 0.00000             
S     core 8.0266822 5.8389021 -0.334096 -1.7528240 1.00000 0.00000             
S     core 5.9706133 9.6952423 0.2231134 -1.7528240 1.00000 0.00000             
Pb    core 6.2355060 8.9739465 3.2312228 1.75282400 1.00000 0.00000             
Pb    core 8.5790898 5.5683980 2.4891189 1.75282400 1.00000 0.00000             
Pb    core 8.5232922 8.4957453 -0.190633 1.75282400 1.00000 0.00000             
Pb    core 5.2177373 5.9574204 0.1184814 1.75282400 1.00000 0.00000             
S     core 9.9538333 7.3086590 20.422848 -1.7528240 1.00000 0.00000             
S     core 9.8282983 5.2446675 12.082225 -1.7528240 1.00000 0.00000             
S     core 7.5875755 9.1392779 12.578944 -1.7528240 1.00000 0.00000             
Pb    core 9.8899366 7.9134006 12.024754 1.75282400 1.00000 0.00000             
Pb    core 6.2888614 6.5537028 12.313600 1.75282400 1.00000 0.00000             
S     core 8.9636154 2.6749535 9.1528215 -1.7528240 1.00000 0.00000             
S     core 5.6897266 0.6714512 11.133172 -1.7528240 1.00000 0.00000             
S     core 8.5636131 -0.138277 7.0945369 -1.7528240 1.00000 0.00000             
S     core 5.8053341 3.2166124 6.6938725 -1.7528240 1.00000 0.00000             
Pb    core 5.7528659 3.6032312 9.4333173 1.75282400 1.00000 0.00000             
Pb    core 6.6363667 -1.011142 8.8100165 1.75282400 1.00000 0.00000             
Pb    core 8.5206441 2.8082703 6.1203989 1.75282400 1.00000 0.00000             
Pb    core 5.5295814 0.3836920 5.5088483 1.75282400 1.00000 0.00000             
S     core 7.5000697 11.925866 8.9668819 -1.7528240 1.00000 0.00000             
S     core 10.241653 11.365889 6.1284236 -1.7528240 1.00000 0.00000             
Pb    core 10.079649 11.324171 8.8106053 1.75282400 1.00000 0.00000             
Pb    core 7.0349557 11.956735 6.1267666 1.75282400 1.00000 0.00000             
S     core 3.9935634 9.6395958 9.2947722 -1.7528240 1.00000 0.00000             
S     core 0.5132329 6.7399094 9.4193353 -1.7528240 1.00000 0.00000             
S     core 3.3171462 6.6242818 6.4897583 -1.7528240 1.00000 0.00000             
S     core 0.6692318 10.054071 6.9174990 -1.7528240 1.00000 0.00000             
Pb    core -0.424381 9.5208592 9.5445954 1.75282400 1.00000 0.00000             
Pb    core 3.2471130 6.7358901 9.2846574 1.75282400 1.00000 0.00000             
Pb    core 3.5362476 9.4907704 6.4578197 1.75282400 1.00000 0.00000             
Pb    core 0.2076426 6.9171627 6.5943921 1.75282400 1.00000 0.00000             
S     core 12.151183 4.6612019 9.5102793 -1.7528240 1.00000 0.00000             
S     core 17.204157 5.7477044 8.7221710 -1.7528240 1.00000 0.00000             
S     core 12.311206 8.0200489 5.8995797 -1.7528240 1.00000 0.00000             
Pb    core 13.173224 7.0152576 8.3751927 1.75282400 1.00000 0.00000             
Pb    core 11.926741 5.1254180 5.1323538 1.75282400 1.00000 0.00000             
S     core 10.722216 8.5530510 9.5179768 -1.7528240 1.00000 0.00000             
S     core 6.6610237 6.3032033 9.4471098 -1.7528240 1.00000 0.00000             
S     core 9.0971662 5.7864648 6.2659016 -1.7528240 1.00000 0.00000             
S     core 6.7104193 9.1634676 6.2907012 -1.7528240 1.00000 0.00000             
Pb    core 6.6846498 9.1617060 9.2666312 1.75282400 1.00000 0.00000             
Pb    core 9.4041608 5.5159566 8.9848252 1.75282400 1.00000 0.00000             
Pb    core 9.5417098 8.4654467 5.7490901 1.75282400 1.00000 0.00000             
Pb    core 6.1349090 6.1349090 6.1888730 1.75282400 1.00000 0.00000             
species   2
S      core   -1.752824                  
Pb     core    1.752824                  
buck     
S     core S     core  11413.0900     0.153000  129.1800      0.00 15.00
buck     
Pb    core Pb    core  11413.0900     0.153000  200.0000      0.00 15.00
buck     
S     core Pb    core  2845.45780     0.347536  0.000000      0.00 15.00
dump Results\PbS_COMP_SPHERE_06.gin                              
output frc Results\PbS_COMP_SPHERE_06.frc                              
