# 
# Keywords:
# 
conp opti  
# 
# Options:
# 
cartesian 
S     core 3.2915212 -2.949488 -2.825918 -1.7528240 1.00000 0.00000             
S     core -2.994649 5.8484518 0.1811502 -1.7528240 1.00000 0.00000             
S     core -3.200145 -2.681979 3.9427424 -1.7528240 1.00000 0.00000             
S     core 8.5046127 -2.013848 -3.882444 -1.7528240 1.00000 0.00000             
Pb    core 6.0007532 -2.831511 -2.990483 1.75282400 1.00000 0.00000             
S     core 2.9721272 2.7694783 -2.640697 -1.7528240 1.00000 0.00000             
S     core 0.2601120 0.0123775 -2.210120 -1.7528240 1.00000 0.00000             
Pb    core 0.1571048 2.8237398 -2.666550 1.75282400 1.00000 0.00000             
Pb    core 3.0320460 -0.082121 -2.938792 1.75282400 1.00000 0.00000             
Pb    core 3.5861952 2.5289367 17.682509 1.75282400 1.00000 0.00000             
S     core 2.5555879 -3.232322 3.1490106 -1.7528240 1.00000 0.00000             
S     core -0.888285 -2.919840 0.6101308 -1.7528240 1.00000 0.00000             
Pb    core -0.309397 -2.816779 3.4159361 1.75282400 1.00000 0.00000             
Pb    core 3.0340968 -5.964108 3.2643278 1.75282400 1.00000 0.00000             
Pb    core 1.2171036 -2.497809 -1.167298 1.75282400 1.00000 0.00000             
S     core 3.8187619 -2.805098 14.812456 -1.7528240 1.00000 0.00000             
S     core -2.331939 -0.016893 12.624102 -1.7528240 1.00000 0.00000             
Pb    core 3.6812216 -2.858185 12.114249 1.75282400 1.00000 0.00000             
S     core 3.1402884 13.555177 -3.620825 -1.7528240 1.00000 0.00000             
S     core -0.983109 9.7325773 -3.730876 -1.7528240 1.00000 0.00000             
Pb    core 0.8164174 10.520944 -1.691206 1.75282400 1.00000 0.00000             
Pb    core 3.8153235 17.052148 0.5883416 1.75282400 1.00000 0.00000             
S     core -3.623875 9.8571258 -0.888777 -1.7528240 1.00000 0.00000             
S     core -2.825762 3.0696892 3.4252699 -1.7528240 1.00000 0.00000             
S     core -3.592968 0.2284352 0.9581414 -1.7528240 1.00000 0.00000             
Pb    core -6.727901 3.8355038 4.1938400 1.75282400 1.00000 0.00000             
Pb    core -3.544379 -2.516891 1.1957893 1.75282400 1.00000 0.00000             
Pb    core -3.259363 3.0753126 0.6644900 1.75282400 1.00000 0.00000             
S     core -1.824078 3.5928987 15.068402 -1.7528240 1.00000 0.00000             
S     core -5.117874 -0.879849 9.9666784 -1.7528240 1.00000 0.00000             
Pb    core -2.681669 2.9169368 12.334493 1.75282400 1.00000 0.00000             
S     core -2.112137 -3.162004 9.6465485 -1.7528240 1.00000 0.00000             
Pb    core -2.734129 -2.835175 6.7850446 1.75282400 1.00000 0.00000             
S     core -3.172115 13.179067 2.9582553 -1.7528240 1.00000 0.00000             
S     core -6.802554 9.7983218 2.2757305 -1.7528240 1.00000 0.00000             
Pb    core -2.107555 10.909486 1.2831667 1.75282400 1.00000 0.00000             
S     core -1.449032 14.144943 11.874451 -1.7528240 1.00000 0.00000             
S     core 14.614503 2.8929882 -2.983960 -1.7528240 1.00000 0.00000             
S     core 10.512324 1.5202051 -5.308607 -1.7528240 1.00000 0.00000             
Pb    core 11.771845 3.1369324 -3.243198 1.75282400 1.00000 0.00000             
S     core 14.215476 -2.818950 3.1132351 -1.7528240 1.00000 0.00000             
S     core 12.171751 -1.207244 -1.983909 -1.7528240 1.00000 0.00000             
Pb    core 12.723925 -1.598373 0.7585428 1.75282400 1.00000 0.00000             
S     core 12.080276 -2.697922 11.971283 -1.7528240 1.00000 0.00000             
S     core 12.219816 12.776785 -2.620439 -1.7528240 1.00000 0.00000             
S     core 8.8791934 3.1155213 -3.006911 -1.7528240 1.00000 0.00000             
S     core 5.8503512 0.0705294 -3.124688 -1.7528240 1.00000 0.00000             
S     core 6.4827779 2.8647040 -6.026002 -1.7528240 1.00000 0.00000             
Pb    core 5.8530591 2.9377268 -3.167622 1.75282400 1.00000 0.00000             
Pb    core 9.9067148 0.2467914 -2.870632 1.75282400 1.00000 0.00000             
Pb    core 7.6371365 0.3257431 -5.349109 1.75282400 1.00000 0.00000             
S     core 6.2908978 3.0719414 17.872304 -1.7528240 1.00000 0.00000             
Pb    core 8.9504581 3.5138448 17.827105 1.75282400 1.00000 0.00000             
Pb    core 9.2650982 0.2438554 14.715146 1.75282400 1.00000 0.00000             
S     core 10.639799 -3.677987 1.1325094 -1.7528240 1.00000 0.00000             
S     core 5.6216365 -5.501787 2.5381848 -1.7528240 1.00000 0.00000             
S     core 6.9512443 -3.124731 -0.284059 -1.7528240 1.00000 0.00000             
Pb    core 4.8472661 -2.799392 1.5264235 1.75282400 1.00000 0.00000             
Pb    core 8.1696183 -4.822389 1.6797593 1.75282400 1.00000 0.00000             
Pb    core 9.6541953 -2.591174 -1.305841 1.75282400 1.00000 0.00000             
S     core 9.3597639 -2.630240 14.835277 -1.7528240 1.00000 0.00000             
S     core 6.5064098 -2.856962 11.896208 -1.7528240 1.00000 0.00000             
Pb    core 6.5543784 -2.722370 14.866963 1.75282400 1.00000 0.00000             
Pb    core 9.3217798 -2.745374 11.874101 1.75282400 1.00000 0.00000             
Pb    core 4.3922410 -6.164975 8.5109034 1.75282400 1.00000 0.00000             
S     core 8.6078116 14.811721 -2.896240 -1.7528240 1.00000 0.00000             
S     core 6.3439610 11.552347 -3.172618 -1.7528240 1.00000 0.00000             
Pb    core 5.8113539 14.292109 -3.270909 1.75282400 1.00000 0.00000             
Pb    core 9.2307668 11.968491 -2.769482 1.75282400 1.00000 0.00000             
Pb    core 3.8239087 11.007224 -4.629732 1.75282400 1.00000 0.00000             
S     core 5.6348810 17.659459 2.4469140 -1.7528240 1.00000 0.00000             
Pb    core 8.4694860 17.587823 2.6018682 1.75282400 1.00000 0.00000             
Pb    core 8.1298646 14.772586 -0.116169 1.75282400 1.00000 0.00000             
Pb    core 7.6599416 17.419807 11.759125 1.75282400 1.00000 0.00000             
S     core 2.8068664 8.8554991 -2.881080 -1.7528240 1.00000 0.00000             
S     core -0.126522 5.7034527 -2.717120 -1.7528240 1.00000 0.00000             
S     core 2.6516401 6.0038872 -5.659445 -1.7528240 1.00000 0.00000             
Pb    core -2.041604 7.6929831 -1.800488 1.75282400 1.00000 0.00000             
Pb    core 2.8979852 5.6299336 -2.899769 1.75282400 1.00000 0.00000             
Pb    core 0.7395469 7.6676584 -4.717131 1.75282400 1.00000 0.00000             
S     core 2.9871833 5.3384020 17.669791 -1.7528240 1.00000 0.00000             
Pb    core 2.6059064 8.0886603 17.379441 1.75282400 1.00000 0.00000             
Pb    core 0.7395933 3.9749589 16.135294 1.75282400 1.00000 0.00000             
S     core 3.0213310 2.7421155 3.1222811 -1.7528240 1.00000 0.00000             
S     core -0.014235 0.0192808 3.2865015 -1.7528240 1.00000 0.00000             
S     core 3.2697008 -0.535666 0.2467199 -1.7528240 1.00000 0.00000             
S     core -0.215792 2.8474759 0.2732418 -1.7528240 1.00000 0.00000             
Pb    core 0.0211002 2.8883859 3.2362102 1.75282400 1.00000 0.00000             
Pb    core 2.9162145 -0.192324 3.1002844 1.75282400 1.00000 0.00000             
Pb    core 2.9687771 2.5972384 0.1669781 1.75282400 1.00000 0.00000             
Pb    core -0.730762 0.0537499 0.4420888 1.75282400 1.00000 0.00000             
S     core 3.4653621 3.1597351 14.823060 -1.7528240 1.00000 0.00000             
S     core 1.4210243 1.1975159 16.474781 -1.7528240 1.00000 0.00000             
S     core 3.5423320 -0.035253 11.952582 -1.7528240 1.00000 0.00000             
S     core 0.2922899 3.0379811 12.099189 -1.7528240 1.00000 0.00000             
Pb    core -0.443062 1.1412092 14.301271 1.75282400 1.00000 0.00000             
Pb    core 3.4656679 -0.016310 14.868888 1.75282400 1.00000 0.00000             
Pb    core 3.1983852 2.8995446 11.964144 1.75282400 1.00000 0.00000             
Pb    core -3.749135 -2.286712 11.763419 1.75282400 1.00000 0.00000             
S     core 3.3281285 -3.680554 9.3838278 -1.7528240 1.00000 0.00000             
S     core 3.6282871 -6.123202 5.9215631 -1.7528240 1.00000 0.00000             
S     core 0.1940509 -3.018025 6.2539134 -1.7528240 1.00000 0.00000             
Pb    core 0.5385249 -2.996375 9.0285802 1.75282400 1.00000 0.00000             
Pb    core 3.1506787 -3.121633 6.0108560 1.75282400 1.00000 0.00000             
S     core 2.3953001 14.974157 1.6697230 -1.7528240 1.00000 0.00000             
S     core 0.0611137 11.434146 3.0868394 -1.7528240 1.00000 0.00000             
S     core 2.9741073 11.337254 -0.047332 -1.7528240 1.00000 0.00000             
S     core -0.642201 12.894653 -0.783797 -1.7528240 1.00000 0.00000             
Pb    core -0.411710 14.010993 2.1286126 1.75282400 1.00000 0.00000             
Pb    core 2.7967542 11.531097 2.7684282 1.75282400 1.00000 0.00000             
Pb    core 2.2036811 13.788461 -1.003704 1.75282400 1.00000 0.00000             
Pb    core -2.571176 11.713287 -2.564228 1.75282400 1.00000 0.00000             
S     core 3.1936400 14.869845 14.459010 -1.7528240 1.00000 0.00000             
S     core 0.1793178 12.245545 14.765959 -1.7528240 1.00000 0.00000             
S     core 3.3512716 11.922387 11.731282 -1.7528240 1.00000 0.00000             
S     core 1.5796237 16.734033 11.296962 -1.7528240 1.00000 0.00000             
Pb    core 3.0356970 12.048929 14.613693 1.75282400 1.00000 0.00000             
Pb    core 3.4244940 14.725613 11.654923 1.75282400 1.00000 0.00000             
Pb    core 0.4269886 15.022525 13.747269 1.75282400 1.00000 0.00000             
S     core 2.5988476 17.777596 6.4911425 -1.7528240 1.00000 0.00000             
Pb    core 3.2600554 17.727341 9.2745755 1.75282400 1.00000 0.00000             
Pb    core -0.115703 17.204399 6.4188105 1.75282400 1.00000 0.00000             
S     core -2.973825 8.8800113 3.2491268 -1.7528240 1.00000 0.00000             
S     core -7.835970 5.7239796 5.8496631 -1.7528240 1.00000 0.00000             
S     core -5.883686 5.9348522 2.6669067 -1.7528240 1.00000 0.00000             
Pb    core -7.513300 7.8821350 4.0584864 1.75282400 1.00000 0.00000             
Pb    core -3.061055 5.9327857 3.2032729 1.75282400 1.00000 0.00000             
Pb    core -5.024998 8.0832415 0.9216217 1.75282400 1.00000 0.00000             
S     core -2.691732 9.1651478 14.374546 -1.7528240 1.00000 0.00000             
S     core -2.730573 5.8036884 12.060605 -1.7528240 1.00000 0.00000             
Pb    core -2.387923 6.3563176 14.850995 1.75282400 1.00000 0.00000             
Pb    core -2.380184 11.914146 13.312119 1.75282400 1.00000 0.00000             
Pb    core -3.130908 8.6270852 11.636344 1.75282400 1.00000 0.00000             
S     core -2.918419 2.7519738 9.2759863 -1.7528240 1.00000 0.00000             
S     core -2.686652 0.0087957 6.7766439 -1.7528240 1.00000 0.00000             
S     core -5.526944 1.8183157 5.5259679 -1.7528240 1.00000 0.00000             
Pb    core -5.270658 0.9010494 8.0394187 1.75282400 1.00000 0.00000             
Pb    core -2.233911 -0.111520 9.7056288 1.75282400 1.00000 0.00000             
Pb    core -2.804969 2.9110705 6.2457117 1.75282400 1.00000 0.00000             
Pb    core -3.568310 0.2891837 3.9208554 1.75282400 1.00000 0.00000             
S     core -1.849356 15.574561 7.8224438 -1.7528240 1.00000 0.00000             
S     core -3.249918 11.804127 6.7751874 -1.7528240 1.00000 0.00000             
Pb    core -2.498973 13.088649 9.4052077 1.75282400 1.00000 0.00000             
Pb    core -2.758518 14.237908 5.4711034 1.75282400 1.00000 0.00000             
Pb    core -4.955320 11.052300 3.8555113 1.75282400 1.00000 0.00000             
S     core 14.689020 8.8233118 -2.830321 -1.7528240 1.00000 0.00000             
S     core 11.844420 5.9620010 -3.133513 -1.7528240 1.00000 0.00000             
Pb    core 11.904524 8.7456283 -2.998748 1.75282400 1.00000 0.00000             
Pb    core 14.702749 5.8063000 -2.981917 1.75282400 1.00000 0.00000             
Pb    core 9.0704338 3.7009602 -6.083923 1.75282400 1.00000 0.00000             
Pb    core 14.170851 6.3384449 16.290742 1.75282400 1.00000 0.00000             
S     core 15.093947 3.0540725 2.7715247 -1.7528240 1.00000 0.00000             
S     core 11.947909 0.0717146 3.0558032 -1.7528240 1.00000 0.00000             
S     core 15.176437 0.1764906 0.1493628 -1.7528240 1.00000 0.00000             
S     core 11.782639 3.1218171 -0.208766 -1.7528240 1.00000 0.00000             
Pb    core 11.901619 2.9519573 2.7604654 1.75282400 1.00000 0.00000             
Pb    core 14.903201 -0.010697 2.9414764 1.75282400 1.00000 0.00000             
Pb    core 14.561069 2.8991842 -0.111271 1.75282400 1.00000 0.00000             
Pb    core 14.503283 0.0764041 -2.561590 1.75282400 1.00000 0.00000             
S     core 15.194071 4.2966387 14.775137 -1.7528240 1.00000 0.00000             
S     core 12.065803 0.3761466 14.894295 -1.7528240 1.00000 0.00000             
S     core 15.227283 0.7459098 11.459017 -1.7528240 1.00000 0.00000             
S     core 12.207416 3.2907949 11.774270 -1.7528240 1.00000 0.00000             
Pb    core 12.411601 3.1475002 14.616647 1.75282400 1.00000 0.00000             
Pb    core 15.086024 3.3776764 11.765610 1.75282400 1.00000 0.00000             
Pb    core 12.498939 0.1988499 11.844528 1.75282400 1.00000 0.00000             
S     core 15.140307 -2.732840 8.4169209 -1.7528240 1.00000 0.00000             
S     core 11.822311 -3.503637 6.3523137 -1.7528240 1.00000 0.00000             
Pb    core 12.501857 -2.748451 9.1892734 1.75282400 1.00000 0.00000             
Pb    core 14.791619 -2.776209 5.7955540 1.75282400 1.00000 0.00000             
Pb    core 11.811854 -4.162126 3.5656569 1.75282400 1.00000 0.00000             
S     core 14.451428 14.991513 3.1849165 -1.7528240 1.00000 0.00000             
S     core 11.629919 11.982559 2.9268314 -1.7528240 1.00000 0.00000             
S     core 16.051013 11.064506 0.4866354 -1.7528240 1.00000 0.00000             
S     core 10.433679 16.437293 0.4830439 -1.7528240 1.00000 0.00000             
Pb    core 11.399460 14.723701 2.5422552 1.75282400 1.00000 0.00000             
Pb    core 14.384118 11.972733 2.6097962 1.75282400 1.00000 0.00000             
Pb    core 14.606428 11.518799 -1.958012 1.75282400 1.00000 0.00000             
S     core 11.700444 11.899755 14.532606 -1.7528240 1.00000 0.00000             
S     core 15.026058 11.870590 11.101990 -1.7528240 1.00000 0.00000             
S     core 10.145848 17.146132 10.201981 -1.7528240 1.00000 0.00000             
Pb    core 12.300204 12.010899 11.837474 1.75282400 1.00000 0.00000             
Pb    core 13.525185 16.703022 5.1442830 1.75282400 1.00000 0.00000             
S     core 17.727103 6.5179342 2.5945879 -1.7528240 1.00000 0.00000             
Pb    core 17.463999 9.3310149 2.5441925 1.75282400 1.00000 0.00000             
Pb    core 17.822136 3.7553936 2.6732351 1.75282400 1.00000 0.00000             
S     core 18.096833 3.6615486 5.4047370 -1.7528240 1.00000 0.00000             
Pb    core 18.096535 3.7435761 8.1259112 1.75282400 1.00000 0.00000             
S     core 9.1665487 9.1203140 -3.288768 -1.7528240 1.00000 0.00000             
S     core 5.8679063 5.8778974 -2.981590 -1.7528240 1.00000 0.00000             
S     core 8.4325535 6.3381533 -6.031509 -1.7528240 1.00000 0.00000             
S     core 5.4601849 9.1362288 -5.870600 -1.7528240 1.00000 0.00000             
Pb    core 5.7489642 8.7005910 -3.010897 1.75282400 1.00000 0.00000             
Pb    core 8.8082156 6.0140636 -3.117849 1.75282400 1.00000 0.00000             
Pb    core 8.1002166 8.9913770 -5.928833 1.75282400 1.00000 0.00000             
Pb    core 5.3745097 5.7535289 -6.060408 1.75282400 1.00000 0.00000             
S     core 8.7502662 6.2344191 17.979485 -1.7528240 1.00000 0.00000             
S     core 5.4125279 8.6234159 17.708724 -1.7528240 1.00000 0.00000             
Pb    core 8.1607412 8.8970751 17.701315 1.75282400 1.00000 0.00000             
Pb    core 5.8280456 5.8403077 17.803601 1.75282400 1.00000 0.00000             
S     core 8.9566883 2.9981642 2.8969385 -1.7528240 1.00000 0.00000             
S     core 6.0638651 -0.271759 2.8609447 -1.7528240 1.00000 0.00000             
S     core 9.0096255 0.0747675 -0.160562 -1.7528240 1.00000 0.00000             
S     core 5.9661192 2.8351003 0.0550724 -1.7528240 1.00000 0.00000             
Pb    core 5.9949023 2.8067447 2.9497220 1.75282400 1.00000 0.00000             
Pb    core 9.0836483 0.0903006 2.6457159 1.75282400 1.00000 0.00000             
Pb    core 8.9058079 2.9748745 -0.130482 1.75282400 1.00000 0.00000             
Pb    core 6.1869549 -0.048802 -0.273230 1.75282400 1.00000 0.00000             
S     core 9.3526031 3.1682771 15.073987 -1.7528240 1.00000 0.00000             
S     core 6.4214812 0.1834744 14.789011 -1.7528240 1.00000 0.00000             
S     core 9.3297439 0.2401807 11.827119 -1.7528240 1.00000 0.00000             
S     core 6.3442953 3.0902205 11.882394 -1.7528240 1.00000 0.00000             
Pb    core 6.3174681 3.0618527 14.824063 1.75282400 1.00000 0.00000             
Pb    core 12.147202 -2.390348 14.681064 1.75282400 1.00000 0.00000             
Pb    core 9.2861396 3.1709185 11.816506 1.75282400 1.00000 0.00000             
Pb    core 6.3945380 0.1454709 11.861358 1.75282400 1.00000 0.00000             
S     core 9.4062460 -2.930884 8.9124565 -1.7528240 1.00000 0.00000             
S     core 7.1025478 -5.943496 8.0627769 -1.7528240 1.00000 0.00000             
S     core 9.1677249 -5.075049 4.5712542 -1.7528240 1.00000 0.00000             
S     core 6.1288206 -2.908252 6.2118045 -1.7528240 1.00000 0.00000             
Pb    core 6.4713354 -3.047932 9.0369510 1.75282400 1.00000 0.00000             
Pb    core 9.7897346 -5.427221 7.4531262 1.75282400 1.00000 0.00000             
Pb    core 8.9934063 -2.625269 6.0194078 1.75282400 1.00000 0.00000             
Pb    core 6.4018557 -5.586189 5.2472050 1.75282400 1.00000 0.00000             
S     core 8.3522589 14.747574 2.6930963 -1.7528240 1.00000 0.00000             
S     core 5.7063991 11.801142 2.8001755 -1.7528240 1.00000 0.00000             
S     core 8.5192146 11.959083 -0.058334 -1.7528240 1.00000 0.00000             
S     core 5.3092983 14.939054 -0.474565 -1.7528240 1.00000 0.00000             
Pb    core 5.3765435 14.625421 2.6143758 1.75282400 1.00000 0.00000             
Pb    core 8.7037891 11.798622 2.7697875 1.75282400 1.00000 0.00000             
Pb    core 11.194820 15.304432 -2.045306 1.75282400 1.00000 0.00000             
Pb    core 5.7122879 11.581813 -0.286038 1.75282400 1.00000 0.00000             
S     core 8.4638019 15.535160 13.863841 -1.7528240 1.00000 0.00000             
S     core 6.1786240 12.081119 14.672737 -1.7528240 1.00000 0.00000             
S     core 9.1450609 11.980827 11.608057 -1.7528240 1.00000 0.00000             
S     core 6.2038890 14.897361 11.536678 -1.7528240 1.00000 0.00000             
Pb    core 5.9176415 14.877339 14.574961 1.75282400 1.00000 0.00000             
Pb    core 9.0613959 12.485649 14.520041 1.75282400 1.00000 0.00000             
Pb    core 9.1578286 14.714221 11.266638 1.75282400 1.00000 0.00000             
Pb    core 6.1801394 11.890290 11.676111 1.75282400 1.00000 0.00000             
S     core 6.0811822 17.864104 9.3482151 -1.7528240 1.00000 0.00000             
S     core 8.1152392 17.963071 5.3702157 -1.7528240 1.00000 0.00000             
Pb    core 8.5628510 17.810655 8.0428883 1.75282400 1.00000 0.00000             
Pb    core 5.2377770 17.825780 5.2740846 1.75282400 1.00000 0.00000             
S     core 2.9963242 8.6204998 3.0278600 -1.7528240 1.00000 0.00000             
S     core 0.0364342 5.7786493 3.2275414 -1.7528240 1.00000 0.00000             
S     core 2.9423897 5.6330964 0.1288616 -1.7528240 1.00000 0.00000             
S     core -0.029376 8.6159331 0.1932976 -1.7528240 1.00000 0.00000             
Pb    core -0.010130 8.6239685 3.0901925 1.75282400 1.00000 0.00000             
Pb    core 3.0110069 5.7012096 3.0637066 1.75282400 1.00000 0.00000             
Pb    core 2.9476365 8.4896124 0.0810558 1.75282400 1.00000 0.00000             
Pb    core -0.041252 5.7064970 0.2457743 1.75282400 1.00000 0.00000             
S     core 3.0328124 9.1428514 14.771463 -1.7528240 1.00000 0.00000             
S     core 0.5254542 6.7323689 15.362045 -1.7528240 1.00000 0.00000             
S     core 3.1966703 6.0302850 11.881208 -1.7528240 1.00000 0.00000             
S     core -0.031425 8.7300397 11.721442 -1.7528240 1.00000 0.00000             
Pb    core 0.0994337 9.4406902 14.435560 1.75282400 1.00000 0.00000             
Pb    core 3.3140960 6.0359824 14.682149 1.75282400 1.00000 0.00000             
Pb    core 3.0026755 9.0346357 11.770441 1.75282400 1.00000 0.00000             
Pb    core 0.2328612 5.8940038 12.011829 1.75282400 1.00000 0.00000             
S     core 3.2842499 2.9549555 9.0186487 -1.7528240 1.00000 0.00000             
S     core 0.5464236 -0.162922 9.0165614 -1.7528240 1.00000 0.00000             
S     core 3.1684999 -0.149172 6.0887128 -1.7528240 1.00000 0.00000             
S     core 0.1593415 2.9148795 6.2614867 -1.7528240 1.00000 0.00000             
Pb    core 0.3026237 2.7648057 9.2079531 1.75282400 1.00000 0.00000             
Pb    core 3.3572012 0.0470592 9.0568574 1.75282400 1.00000 0.00000             
Pb    core 3.1022572 2.8816135 6.0665492 1.75282400 1.00000 0.00000             
Pb    core 0.1703475 -0.026101 6.1735314 1.75282400 1.00000 0.00000             
S     core 2.9922664 14.824248 8.7671731 -1.7528240 1.00000 0.00000             
S     core 0.1176451 12.076061 8.6580274 -1.7528240 1.00000 0.00000             
S     core 2.9085329 11.846726 5.7818582 -1.7528240 1.00000 0.00000             
S     core -0.051265 14.915091 4.8883165 -1.7528240 1.00000 0.00000             
Pb    core 0.1868917 14.855084 9.7195448 1.75282400 1.00000 0.00000             
Pb    core 2.9741511 11.852028 8.8154894 1.75282400 1.00000 0.00000             
Pb    core 2.6207520 14.720340 5.8689506 1.75282400 1.00000 0.00000             
Pb    core -0.138277 11.772568 5.8458509 1.75282400 1.00000 0.00000             
S     core -3.979031 11.261861 10.934735 -1.7528240 1.00000 0.00000             
S     core -3.893332 8.0476233 8.9176730 -1.7528240 1.00000 0.00000             
S     core -3.048617 5.8174410 6.3273091 -1.7528240 1.00000 0.00000             
S     core -5.894021 9.3075837 6.1082201 -1.7528240 1.00000 0.00000             
Pb    core -5.177697 10.539358 8.5162810 1.75282400 1.00000 0.00000             
Pb    core -2.615651 5.5705994 9.2315191 1.75282400 1.00000 0.00000             
Pb    core -2.952488 8.8292964 6.1164697 1.75282400 1.00000 0.00000             
Pb    core -5.721728 6.6898748 7.1660154 1.75282400 1.00000 0.00000             
S     core 14.634930 8.9818783 2.8134392 -1.7528240 1.00000 0.00000             
S     core 11.872204 5.9839019 2.8535668 -1.7528240 1.00000 0.00000             
S     core 14.731100 5.7598186 -0.119479 -1.7528240 1.00000 0.00000             
S     core 11.890449 8.8023322 -0.160050 -1.7528240 1.00000 0.00000             
Pb    core 11.709811 9.0309596 2.7663481 1.75282400 1.00000 0.00000             
Pb    core 14.764346 6.0259784 2.7829380 1.75282400 1.00000 0.00000             
Pb    core 14.756593 8.5350900 -0.008570 1.75282400 1.00000 0.00000             
Pb    core 11.733577 5.9223886 -0.127524 1.75282400 1.00000 0.00000             
S     core 15.089825 8.3497959 14.680307 -1.7528240 1.00000 0.00000             
S     core 11.893182 6.2151559 14.905390 -1.7528240 1.00000 0.00000             
S     core 15.306906 6.2952494 11.450318 -1.7528240 1.00000 0.00000             
S     core 12.059022 9.0632054 11.727067 -1.7528240 1.00000 0.00000             
Pb    core 12.070314 9.2101602 14.633983 1.75282400 1.00000 0.00000             
Pb    core 16.700759 6.3363491 13.745901 1.75282400 1.00000 0.00000             
Pb    core 14.926012 9.2227746 11.768464 1.75282400 1.00000 0.00000             
Pb    core 12.163928 6.1802161 11.822410 1.75282400 1.00000 0.00000             
S     core 15.402641 3.2909270 8.6807039 -1.7528240 1.00000 0.00000             
S     core 12.191750 0.1880596 8.7961766 -1.7528240 1.00000 0.00000             
S     core 14.987149 0.1653954 5.8177057 -1.7528240 1.00000 0.00000             
S     core 12.108118 3.1301410 5.8242840 -1.7528240 1.00000 0.00000             
Pb    core 12.239300 3.1249569 8.7954087 1.75282400 1.00000 0.00000             
Pb    core 15.235974 0.0157665 8.8141726 1.75282400 1.00000 0.00000             
Pb    core 15.075152 3.0709870 5.7182897 1.75282400 1.00000 0.00000             
Pb    core 12.081133 0.1653522 5.8860678 1.75282400 1.00000 0.00000             
S     core 14.560769 15.336791 7.3177491 -1.7528240 1.00000 0.00000             
S     core 11.804904 12.421577 8.7938395 -1.7528240 1.00000 0.00000             
S     core 14.715792 11.957897 5.6311681 -1.7528240 1.00000 0.00000             
S     core 11.247557 15.344150 5.4412062 -1.7528240 1.00000 0.00000             
Pb    core 11.669624 15.313936 8.3619100 1.75282400 1.00000 0.00000             
Pb    core 14.624074 12.436087 8.4962823 1.75282400 1.00000 0.00000             
Pb    core 16.083357 14.219816 5.2807864 1.75282400 1.00000 0.00000             
Pb    core 11.709717 12.142175 5.7604486 1.75282400 1.00000 0.00000             
S     core 18.155926 6.5005063 8.2904965 -1.7528240 1.00000 0.00000             
S     core 17.816719 9.4016037 5.3911388 -1.7528240 1.00000 0.00000             
Pb    core 17.765023 9.2038524 8.1349162 1.75282400 1.00000 0.00000             
Pb    core 17.903402 6.5178638 5.4058758 1.75282400 1.00000 0.00000             
S     core 8.8270010 8.8834576 2.8655365 -1.7528240 1.00000 0.00000             
S     core 5.9646116 5.8025578 2.9720934 -1.7528240 1.00000 0.00000             
S     core 8.8641542 6.0291043 -0.122668 -1.7528240 1.00000 0.00000             
S     core 5.9345369 8.6864310 -0.080464 -1.7528240 1.00000 0.00000             
Pb    core 5.8964534 8.7674230 2.8716344 1.75282400 1.00000 0.00000             
Pb    core 8.8905558 5.9281543 2.8517677 1.75282400 1.00000 0.00000             
Pb    core 8.8961690 8.9952291 -0.133805 1.75282400 1.00000 0.00000             
Pb    core 5.9181425 5.7267944 -0.034671 1.75282400 1.00000 0.00000             
S     core 8.9913472 9.1928961 15.041590 -1.7528240 1.00000 0.00000             
S     core 6.1976215 6.1092829 14.864376 -1.7528240 1.00000 0.00000             
S     core 9.1650100 6.1211562 11.881198 -1.7528240 1.00000 0.00000             
S     core 6.1234148 8.9778486 11.832433 -1.7528240 1.00000 0.00000             
Pb    core 5.9547736 9.1762907 14.765061 1.75282400 1.00000 0.00000             
Pb    core 9.0897521 6.1852721 14.867590 1.75282400 1.00000 0.00000             
Pb    core 9.0895982 9.0697563 11.848936 1.75282400 1.00000 0.00000             
Pb    core 6.1644912 6.0274725 11.819892 1.75282400 1.00000 0.00000             
S     core 9.2093024 3.0948242 8.8416072 -1.7528240 1.00000 0.00000             
S     core 6.3099596 -0.032556 8.9235204 -1.7528240 1.00000 0.00000             
S     core 9.1229081 0.0912153 5.8133014 -1.7528240 1.00000 0.00000             
S     core 6.0871647 2.9045985 5.9378259 -1.7528240 1.00000 0.00000             
Pb    core 6.2256226 3.0105643 8.8937520 1.75282400 1.00000 0.00000             
Pb    core 9.2789498 0.1402633 8.8986254 1.75282400 1.00000 0.00000             
Pb    core 9.0798206 3.0382600 5.8439209 1.75282400 1.00000 0.00000             
Pb    core 6.0890243 -0.040453 5.8493163 1.75282400 1.00000 0.00000             
S     core 8.7240979 14.848072 8.3787287 -1.7528240 1.00000 0.00000             
S     core 5.9787202 11.908993 8.7181800 -1.7528240 1.00000 0.00000             
S     core 8.7651521 11.918478 5.7294145 -1.7528240 1.00000 0.00000             
S     core 5.4946529 14.906997 5.5933375 -1.7528240 1.00000 0.00000             
Pb    core 5.8693097 14.842249 8.6061930 1.75282400 1.00000 0.00000             
Pb    core 8.9072477 11.907698 8.6353077 1.75282400 1.00000 0.00000             
Pb    core 8.4428066 14.870917 5.5179346 1.75282400 1.00000 0.00000             
Pb    core 5.8093502 11.809037 5.7544276 1.75282400 1.00000 0.00000             
S     core 3.0794873 8.9194993 8.8573971 -1.7528240 1.00000 0.00000             
S     core 0.1820231 5.8465209 9.0502127 -1.7528240 1.00000 0.00000             
S     core 3.0685283 5.8445938 6.0177306 -1.7528240 1.00000 0.00000             
S     core -0.045419 8.7925942 6.1416081 -1.7528240 1.00000 0.00000             
Pb    core 0.1449750 9.0949980 8.9814601 1.75282400 1.00000 0.00000             
Pb    core 3.1182938 5.9187481 8.9459172 1.75282400 1.00000 0.00000             
Pb    core 2.9614497 8.8169430 5.9172491 1.75282400 1.00000 0.00000             
Pb    core 0.0634989 5.8342575 6.1322591 1.75282400 1.00000 0.00000             
S     core 15.028080 9.2400818 8.6033643 -1.7528240 1.00000 0.00000             
S     core 12.126254 6.1314046 8.8018628 -1.7528240 1.00000 0.00000             
S     core 14.990900 6.1654346 5.7225890 -1.7528240 1.00000 0.00000             
S     core 11.840002 9.1000525 5.8609979 -1.7528240 1.00000 0.00000             
Pb    core 11.995982 9.1228075 8.7835323 1.75282400 1.00000 0.00000             
Pb    core 15.063899 6.2396040 8.6332565 1.75282400 1.00000 0.00000             
Pb    core 14.749409 9.1265461 5.6560977 1.75282400 1.00000 0.00000             
Pb    core 11.951972 6.0679887 5.7981645 1.75282400 1.00000 0.00000             
S     core 9.0346731 9.0125957 8.8173195 -1.7528240 1.00000 0.00000             