# 
# Keywords:
# 
conp opti  
# 
# Options:
# 
cartesian 
Pb    core 13.129920 13.129930 13.129940 1.75282400 1.00000 0.00000             
Pb    core 18.870080 18.870080 13.129940 1.75282400 1.00000 0.00000             
Pb    core 18.870080 13.129930 18.870070 1.75282400 1.00000 0.00000             
Pb    core 13.129920 18.870080 18.870070 1.75282400 1.00000 0.00000             
S     core 13.135240 18.864770 13.135230 -1.7528240 1.00000 0.00000             
S     core 18.864750 13.135240 13.135230 -1.7528240 1.00000 0.00000             
S     core 13.135240 13.135240 18.864770 -1.7528240 1.00000 0.00000             
S     core 18.864750 18.864770 18.864770 -1.7528240 1.00000 0.00000             
Pb    core 20.609920 14.628010 14.628000 1.75282400 1.00000 0.00000             
Pb    core 20.609920 17.372000 17.372010 1.75282400 1.00000 0.00000             
S     core 20.614000 17.376520 14.623500 -1.7528240 1.00000 0.00000             
S     core 20.614000 14.623490 17.376500 -1.7528240 1.00000 0.00000             
Pb    core 11.390080 17.372000 14.628000 1.75282400 1.00000 0.00000             
Pb    core 11.390080 14.628010 17.372010 1.75282400 1.00000 0.00000             
S     core 11.386000 14.623490 14.623500 -1.7528240 1.00000 0.00000             
S     core 11.386000 17.376520 17.376500 -1.7528240 1.00000 0.00000             
Pb    core 14.628020 20.609930 14.627990 1.75282400 1.00000 0.00000             
Pb    core 17.371970 20.609930 17.372010 1.75282400 1.00000 0.00000             
S     core 17.376530 20.614000 14.623510 -1.7528240 1.00000 0.00000             
S     core 14.623470 20.614000 17.376490 -1.7528240 1.00000 0.00000             
Pb    core 17.371970 11.390080 14.627990 1.75282400 1.00000 0.00000             
Pb    core 14.628020 11.390080 17.372010 1.75282400 1.00000 0.00000             
S     core 14.623470 11.386010 14.623510 -1.7528240 1.00000 0.00000             
S     core 17.376530 11.386010 17.376490 -1.7528240 1.00000 0.00000             
Pb    core 14.628020 14.628000 20.609930 1.75282400 1.00000 0.00000             
Pb    core 17.371980 17.372010 20.609930 1.75282400 1.00000 0.00000             
S     core 14.623470 17.376500 20.613990 -1.7528240 1.00000 0.00000             
S     core 17.376520 14.623500 20.613990 -1.7528240 1.00000 0.00000             
Pb    core 17.371980 14.628000 11.390080 1.75282400 1.00000 0.00000             
Pb    core 14.628020 17.372010 11.390080 1.75282400 1.00000 0.00000             
S     core 14.623470 14.623500 11.386010 -1.7528240 1.00000 0.00000             
S     core 17.376520 17.376500 11.386010 -1.7528240 1.00000 0.00000             
species   2
Pb     core    1.752824                  
S      core   -1.752824                  
buck     
S     core S     core  11413.0900     0.153000  129.1800      0.00 15.00
buck     
Pb    core Pb    core  11413.0900     0.153000  200.0000      0.00 15.00
buck     
S     core Pb    core  2845.45780     0.347536  0.000000      0.00 15.00
maxcyc opt      400
dump PbS_COMP_CUBIC_03.gin                                       
