# 
# Keywords:
# 
conp opti  
# 
# Options:
# 
cartesian 
S     core 2.2233336 2.5170747 3.0706115 -1.7528240 1.00000 0.00000             
Pb    core -0.265456 3.2282671 3.9671991 1.75282400 1.00000 0.00000             
Pb    core 5.5282586 3.6996676 13.298048 1.75282400 1.00000 0.00000             
Pb    core 2.7577257 12.011244 4.6631132 1.75282400 1.00000 0.00000             
Pb    core 11.849756 4.0652097 3.1709714 1.75282400 1.00000 0.00000             
S     core 9.4629066 2.7665814 2.6123428 -1.7528240 1.00000 0.00000             
S     core 5.6585140 -0.189361 3.7570060 -1.7528240 1.00000 0.00000             
S     core 5.2795714 3.0052125 0.4738252 -1.7528240 1.00000 0.00000             
Pb    core 4.0988505 0.9800112 1.8853636 1.75282400 1.00000 0.00000             
Pb    core 8.2742595 0.3290197 3.2185444 1.75282400 1.00000 0.00000             
S     core 6.3323007 1.0930870 13.052376 -1.7528240 1.00000 0.00000             
Pb    core 8.7105069 1.6096137 11.700688 1.75282400 1.00000 0.00000             
S     core 5.2532484 12.852633 3.9787306 -1.7528240 1.00000 0.00000             
Pb    core 7.4485246 11.919662 2.4572686 1.75282400 1.00000 0.00000             
S     core 1.8759237 9.8796118 3.0552791 -1.7528240 1.00000 0.00000             
S     core -1.063744 5.8014348 3.9555925 -1.7528240 1.00000 0.00000             
S     core 3.1118959 6.5895648 0.1075473 -1.7528240 1.00000 0.00000             
Pb    core -0.443364 8.3958095 3.6633776 1.75282400 1.00000 0.00000             
Pb    core 3.6602517 4.9859424 2.4100542 1.75282400 1.00000 0.00000             
Pb    core 3.4393647 9.1540209 0.8839519 1.75282400 1.00000 0.00000             
S     core 4.8707708 6.3975675 13.448005 -1.7528240 1.00000 0.00000             
Pb    core 4.2858545 9.1134330 13.488353 1.75282400 1.00000 0.00000             
S     core 3.7190889 3.3249694 11.099305 -1.7528240 1.00000 0.00000             
S     core 3.7703371 1.3733262 8.2261905 -1.7528240 1.00000 0.00000             
S     core 0.4548426 3.0387243 6.6427604 -1.7528240 1.00000 0.00000             
Pb    core 1.6413972 3.1668476 9.1430198 1.75282400 1.00000 0.00000             
Pb    core 4.7537693 0.6034669 10.818805 1.75282400 1.00000 0.00000             
Pb    core 3.2341355 2.8274207 5.7653127 1.75282400 1.00000 0.00000             
S     core 3.2993825 10.768509 7.1384805 -1.7528240 1.00000 0.00000             
Pb    core 5.1232344 9.2846787 8.8504664 1.75282400 1.00000 0.00000             
S     core 11.956243 6.7365123 3.5176626 -1.7528240 1.00000 0.00000             
Pb    core 11.063524 9.4237163 3.9039720 1.75282400 1.00000 0.00000             
S     core 11.877328 3.4367993 5.9206643 -1.7528240 1.00000 0.00000             
Pb    core 12.435134 3.0537004 8.6347708 1.75282400 1.00000 0.00000             
S     core 9.4168870 9.8988625 1.6453479 -1.7528240 1.00000 0.00000             
S     core 6.3118850 6.0480726 2.9997336 -1.7528240 1.00000 0.00000             
S     core 7.5297286 6.0914731 -1.089631 -1.7528240 1.00000 0.00000             
S     core 6.0279684 9.9375137 0.9500463 -1.7528240 1.00000 0.00000             
Pb    core 7.2182699 8.6348096 3.3335437 1.75282400 1.00000 0.00000             
Pb    core 7.6663575 4.4043090 1.1870924 1.75282400 1.00000 0.00000             
Pb    core 8.1332177 8.6286929 -0.376409 1.75282400 1.00000 0.00000             
Pb    core 4.9646896 5.1590749 -1.251357 1.75282400 1.00000 0.00000             
S     core 7.8498795 4.3172201 11.460167 -1.7528240 1.00000 0.00000             
S     core 6.8624015 9.7882368 13.142583 -1.7528240 1.00000 0.00000             
Pb    core 7.3065127 7.1559642 12.104458 1.75282400 1.00000 0.00000             
S     core 11.033838 1.2313115 10.092793 -1.7528240 1.00000 0.00000             
S     core 7.1946484 0.6284858 9.3532593 -1.7528240 1.00000 0.00000             
S     core 8.8972721 0.2640423 5.8528975 -1.7528240 1.00000 0.00000             
S     core 6.1849138 3.2122826 6.3398327 -1.7528240 1.00000 0.00000             
Pb    core 5.9365979 3.4880976 9.1784151 1.75282400 1.00000 0.00000             
Pb    core 9.6138549 -0.261542 8.3610521 1.75282400 1.00000 0.00000             
Pb    core 8.9551762 3.2441838 5.5498281 1.75282400 1.00000 0.00000             
Pb    core 6.0196783 0.3861652 6.5893879 1.75282400 1.00000 0.00000             
S     core 7.3056012 11.074741 8.7795676 -1.7528240 1.00000 0.00000             
S     core 8.5522818 10.688525 4.8193089 -1.7528240 1.00000 0.00000             
Pb    core 6.2537858 11.694722 6.2840545 1.75282400 1.00000 0.00000             
S     core 3.1702079 9.0556738 10.959270 -1.7528240 1.00000 0.00000             
S     core 1.3746272 6.0929652 9.1241852 -1.7528240 1.00000 0.00000             
S     core 3.0935133 5.7043734 5.2151227 -1.7528240 1.00000 0.00000             
S     core 0.3247079 8.6899947 6.2957484 -1.7528240 1.00000 0.00000             
Pb    core 1.3291838 9.0958209 8.8347132 1.75282400 1.00000 0.00000             
Pb    core 3.4825622 6.1915648 10.934862 1.75282400 1.00000 0.00000             
Pb    core 3.0704842 8.4921469 5.3792989 1.75282400 1.00000 0.00000             
Pb    core 0.3237916 5.8583311 6.5079655 1.75282400 1.00000 0.00000             
S     core 12.071698 5.7235643 9.0842595 -1.7528240 1.00000 0.00000             
S     core 11.594476 9.0336002 6.8489602 -1.7528240 1.00000 0.00000             
Pb    core 12.100334 8.4217835 9.4567245 1.75282400 1.00000 0.00000             
Pb    core 11.732661 6.2892768 6.2372186 1.75282400 1.00000 0.00000             
S     core 9.5492315 8.4443264 10.509015 -1.7528240 1.00000 0.00000             
S     core 6.0318357 6.5316612 9.3785132 -1.7528240 1.00000 0.00000             
S     core 8.8995333 6.0159149 6.6506363 -1.7528240 1.00000 0.00000             
S     core 5.8705901 8.7670563 5.9636216 -1.7528240 1.00000 0.00000             
Pb    core 8.3526175 10.883742 11.235127 1.75282400 1.00000 0.00000             
Pb    core 9.1209001 5.8207850 9.4300943 1.75282400 1.00000 0.00000             
Pb    core 8.7146768 9.0854437 7.1846241 1.75282400 1.00000 0.00000             
Pb    core 6.0390530 5.9609470 5.9218950 1.75282400 1.00000 0.00000             
species   2
S      core   -1.752824                  
Pb     core    1.752824                  
buck     
S     core S     core  11413.0900     0.153000  129.1800      0.00 15.00
buck     
Pb    core Pb    core  11413.0900     0.153000  200.0000      0.00 15.00
buck     
S     core Pb    core  2845.45780     0.347536  0.000000      0.00 15.00
dump Results\PbS_COMP_SPHERE_05.gin                              
output frc Results\PbS_COMP_SPHERE_05.frc                              
