# 
# Keywords:
# 
conp opti  
# 
# Options:
# 
cartesian 
S     core 3.6421142 -3.186568 -8.754183 -1.7528240 1.00000 0.00000             
S     core 3.6226574 -9.212257 -2.293904 -1.7528240 1.00000 0.00000             
S     core -2.709637 2.9650047 -8.826230 -1.7528240 1.00000 0.00000             
S     core -2.579168 -3.036675 -2.831708 -1.7528240 1.00000 0.00000             
Pb    core -7.667942 -1.932632 -1.526224 1.75282400 1.00000 0.00000             
Pb    core -1.213988 -8.245926 -1.144277 1.75282400 1.00000 0.00000             
Pb    core -2.531078 -2.846093 -5.496779 1.75282400 1.00000 0.00000             
Pb    core -3.423547 -1.984573 18.098721 1.75282400 1.00000 0.00000             
S     core -2.475555 -9.106478 3.5658909 -1.7528240 1.00000 0.00000             
Pb    core -2.517064 17.581058 -4.108798 1.75282400 1.00000 0.00000             
S     core -8.896477 3.0946275 -2.794539 -1.7528240 1.00000 0.00000             
S     core -8.844834 -2.907538 3.5171235 -1.7528240 1.00000 0.00000             
Pb    core 18.531187 -2.846442 -2.002954 1.75282400 1.00000 0.00000             
S     core 8.9279832 -2.995353 -8.726914 -1.7528240 1.00000 0.00000             
Pb    core 6.2817938 -3.006325 -8.782425 1.75282400 1.00000 0.00000             
S     core 8.9595831 -8.974499 -2.621337 -1.7528240 1.00000 0.00000             
Pb    core 6.2686227 -9.061581 -2.491363 1.75282400 1.00000 0.00000             
S     core 3.5503526 3.1947161 -9.484916 -1.7528240 1.00000 0.00000             
S     core 0.6561351 0.1993708 -8.770147 -1.7528240 1.00000 0.00000             
Pb    core 0.1587385 2.8137520 -8.910930 1.75282400 1.00000 0.00000             
Pb    core 3.2460952 -0.478879 -8.901524 1.75282400 1.00000 0.00000             
S     core 3.1886743 -3.190343 -2.675655 -1.7528240 1.00000 0.00000             
S     core 0.2896176 -6.344800 -2.608847 -1.7528240 1.00000 0.00000             
S     core 3.4872411 -6.108264 -5.424569 -1.7528240 1.00000 0.00000             
S     core 0.1486534 -3.471405 -5.625372 -1.7528240 1.00000 0.00000             
Pb    core 0.2417932 -3.250008 -2.680980 1.75282400 1.00000 0.00000             
Pb    core 3.2651577 -6.398881 -2.549283 1.75282400 1.00000 0.00000             
Pb    core 3.1781382 -3.244390 -5.985215 1.75282400 1.00000 0.00000             
Pb    core 0.8233344 -6.158860 -5.359186 1.75282400 1.00000 0.00000             
S     core 2.8169834 -2.326792 20.630888 -1.7528240 1.00000 0.00000             
S     core 3.3754135 -5.205705 18.264737 -1.7528240 1.00000 0.00000             
S     core -0.682125 -2.162119 18.088349 -1.7528240 1.00000 0.00000             
Pb    core 3.4381864 -2.402180 17.927292 1.75282400 1.00000 0.00000             
Pb    core 0.9241492 -4.325063 19.089061 1.75282400 1.00000 0.00000             
S     core 3.9441094 -9.746714 3.6845784 -1.7528240 1.00000 0.00000             
S     core 0.6703876 -8.854786 0.7094877 -1.7528240 1.00000 0.00000             
Pb    core 0.2545867 -9.092528 3.4093194 1.75282400 1.00000 0.00000             
Pb    core 3.4004092 -9.174691 0.4363569 1.75282400 1.00000 0.00000             
S     core 3.6349043 -8.797716 15.236434 -1.7528240 1.00000 0.00000             
S     core 0.4986094 -8.629981 12.085564 -1.7528240 1.00000 0.00000             
Pb    core 3.1768813 -8.856716 12.481037 1.75282400 1.00000 0.00000             
S     core 3.5877222 14.530751 -8.997925 -1.7528240 1.00000 0.00000             
S     core 0.0948765 11.724003 -8.721295 -1.7528240 1.00000 0.00000             
Pb    core 2.8886861 11.894390 -8.943137 1.75282400 1.00000 0.00000             
S     core 3.6506651 20.757309 -2.979190 -1.7528240 1.00000 0.00000             
S     core 0.1474889 17.419118 -3.445643 -1.7528240 1.00000 0.00000             
S     core 3.3555468 17.488043 -6.051309 -1.7528240 1.00000 0.00000             
Pb    core 3.0072858 18.010034 -3.288977 1.75282400 1.00000 0.00000             
Pb    core 0.5902946 17.172222 -6.441238 1.75282400 1.00000 0.00000             
S     core 3.1004358 18.117247 17.565250 -1.7528240 1.00000 0.00000             
Pb    core 0.4178989 18.195652 17.614023 1.75282400 1.00000 0.00000             
S     core -2.678480 8.3062986 -9.124118 -1.7528240 1.00000 0.00000             
Pb    core -2.513565 5.6801663 -8.908689 1.75282400 1.00000 0.00000             
S     core -2.729271 2.7935319 -2.906421 -1.7528240 1.00000 0.00000             
S     core -5.777891 -0.267689 -2.620951 -1.7528240 1.00000 0.00000             
S     core -2.795305 -0.178721 -5.995220 -1.7528240 1.00000 0.00000             
S     core -5.517756 2.9287937 -6.120147 -1.7528240 1.00000 0.00000             
Pb    core -6.186221 2.4497971 -3.303667 1.75282400 1.00000 0.00000             
Pb    core -2.947159 -0.173212 -2.870928 1.75282400 1.00000 0.00000             
Pb    core -2.598311 2.8307090 -5.790736 1.75282400 1.00000 0.00000             
Pb    core -4.450258 1.1028823 -7.876425 1.75282400 1.00000 0.00000             
S     core -2.741572 3.5037708 20.945156 -1.7528240 1.00000 0.00000             
S     core -4.447947 -0.572747 20.290395 -1.7528240 1.00000 0.00000             
S     core -5.835683 3.5667543 18.038531 -1.7528240 1.00000 0.00000             
Pb    core -2.979158 3.3920025 18.001827 1.75282400 1.00000 0.00000             
Pb    core -6.206369 1.0452474 18.976710 1.75282400 1.00000 0.00000             
S     core -2.800796 -3.120536 3.1153009 -1.7528240 1.00000 0.00000             
S     core -5.574780 -5.978548 3.4007563 -1.7528240 1.00000 0.00000             
S     core -2.659944 -6.267600 0.2501388 -1.7528240 1.00000 0.00000             
S     core -5.833999 -3.295958 0.1544835 -1.7528240 1.00000 0.00000             
Pb    core -6.049696 -3.122369 3.1229534 1.75282400 1.00000 0.00000             
Pb    core -2.680429 -6.290464 3.2524155 1.75282400 1.00000 0.00000             
Pb    core -2.836495 -3.203631 -0.013284 1.75282400 1.00000 0.00000             
Pb    core -5.404510 -5.984393 0.7156054 1.75282400 1.00000 0.00000             
S     core -3.387727 -2.843113 15.295341 -1.7528240 1.00000 0.00000             
S     core -2.936553 -5.676386 12.437061 -1.7528240 1.00000 0.00000             
S     core -5.705348 -2.901634 12.143344 -1.7528240 1.00000 0.00000             
Pb    core -6.164174 -1.868154 14.716504 1.75282400 1.00000 0.00000             
Pb    core -2.343908 -5.572585 15.107247 1.75282400 1.00000 0.00000             
Pb    core -2.839767 -2.865455 12.070644 1.75282400 1.00000 0.00000             
Pb    core -5.622784 -5.708917 11.615945 1.75282400 1.00000 0.00000             
S     core -2.524263 -8.968486 8.8931177 -1.7528240 1.00000 0.00000             
Pb    core -2.460387 -9.077042 6.2452011 1.75282400 1.00000 0.00000             
S     core -2.214059 16.712485 -6.674612 -1.7528240 1.00000 0.00000             
S     core -6.311534 11.575972 -2.859297 -1.7528240 1.00000 0.00000             
S     core -2.741495 11.854193 -5.829848 -1.7528240 1.00000 0.00000             
Pb    core -8.114209 13.349800 -1.436224 1.75282400 1.00000 0.00000             
Pb    core -3.138501 11.527660 -3.158949 1.75282400 1.00000 0.00000             
Pb    core -1.728585 13.902423 -7.601281 1.75282400 1.00000 0.00000             
Pb    core -7.646577 10.283969 -5.014413 1.75282400 1.00000 0.00000             
S     core -3.060307 12.215347 17.768933 -1.7528240 1.00000 0.00000             
Pb    core -2.824159 14.923910 17.809026 1.75282400 1.00000 0.00000             
Pb    core -4.818958 10.858145 19.586035 1.75282400 1.00000 0.00000             
S     core -3.006475 20.783983 3.1965824 -1.7528240 1.00000 0.00000             
S     core -5.766294 17.531384 2.6177927 -1.7528240 1.00000 0.00000             
S     core -3.269591 17.172039 -1.404179 -1.7528240 1.00000 0.00000             
Pb    core -2.964408 18.057206 2.7787494 1.75282400 1.00000 0.00000             
Pb    core -5.672456 17.459008 -0.087301 1.75282400 1.00000 0.00000             
S     core -3.188806 17.853654 11.748006 -1.7528240 1.00000 0.00000             
Pb    core -2.817117 18.445217 14.339580 1.75282400 1.00000 0.00000             
Pb    core -5.902225 18.012903 10.824326 1.75282400 1.00000 0.00000             
S     core -8.767969 8.5099730 -3.182363 -1.7528240 1.00000 0.00000             
Pb    core -8.797064 5.7307411 -2.847140 1.75282400 1.00000 0.00000             
S     core -8.804845 2.9432782 3.0326808 -1.7528240 1.00000 0.00000             
S     core -8.554627 -0.080305 0.2545345 -1.7528240 1.00000 0.00000             
Pb    core -8.823583 -0.192720 3.0043215 1.75282400 1.00000 0.00000             
Pb    core -8.740188 2.6844001 -0.061777 1.75282400 1.00000 0.00000             
S     core -8.933941 3.5751565 15.010759 -1.7528240 1.00000 0.00000             
S     core -7.423051 0.3579715 13.669305 -1.7528240 1.00000 0.00000             
Pb    core -8.680320 2.6497572 12.398190 1.75282400 1.00000 0.00000             
S     core -8.797569 -2.614421 8.8965251 -1.7528240 1.00000 0.00000             
Pb    core -8.837427 -2.847072 6.1693645 1.75282400 1.00000 0.00000             
S     core -9.015217 14.369377 2.9313403 -1.7528240 1.00000 0.00000             
S     core -8.800858 11.326012 0.2129710 -1.7528240 1.00000 0.00000             
Pb    core -9.101050 11.604732 2.9652800 1.75282400 1.00000 0.00000             
S     core -8.995445 11.500255 11.377330 -1.7528240 1.00000 0.00000             
S     core 14.945888 3.3428127 -8.891433 -1.7528240 1.00000 0.00000             
S     core 11.924498 0.1704516 -8.584818 -1.7528240 1.00000 0.00000             
Pb    core 12.194312 2.8375523 -8.921786 1.75282400 1.00000 0.00000             
S     core 16.505830 -4.198697 -3.492061 -1.7528240 1.00000 0.00000             
S     core 12.380044 -5.888651 -2.628933 -1.7528240 1.00000 0.00000             
S     core 12.493993 -3.375774 -5.353337 -1.7528240 1.00000 0.00000             
Pb    core 11.878683 -3.040902 -2.609981 1.75282400 1.00000 0.00000             
Pb    core 15.059750 -6.147709 -2.176024 1.75282400 1.00000 0.00000             
Pb    core 15.165867 -2.910516 -5.625310 1.75282400 1.00000 0.00000             
Pb    core 11.624848 -6.070611 -5.388075 1.75282400 1.00000 0.00000             
S     core 11.911966 -2.459142 18.068247 -1.7528240 1.00000 0.00000             
Pb    core 14.516238 -2.172104 18.268272 1.75282400 1.00000 0.00000             
Pb    core 10.666835 -7.493977 17.218062 1.75282400 1.00000 0.00000             
S     core 11.835357 -8.973018 1.0163715 -1.7528240 1.00000 0.00000             
Pb    core 11.401097 -9.092511 3.6072491 1.75282400 1.00000 0.00000             
S     core 11.996372 -8.581716 12.219962 -1.7528240 1.00000 0.00000             
S     core 11.749955 11.636988 -8.875061 -1.7528240 1.00000 0.00000             
S     core 11.764392 17.713007 -3.227058 -1.7528240 1.00000 0.00000             
Pb    core 14.469559 18.038357 -2.950529 1.75282400 1.00000 0.00000             
Pb    core 10.344243 17.824779 -6.186194 1.75282400 1.00000 0.00000             
Pb    core 10.624615 17.211056 19.404607 1.75282400 1.00000 0.00000             
S     core 20.986238 3.5302581 -2.447246 -1.7528240 1.00000 0.00000             
S     core 17.939100 -0.243408 -2.634323 -1.7528240 1.00000 0.00000             
S     core 17.919573 3.2090265 -5.516078 -1.7528240 1.00000 0.00000             
Pb    core 18.239708 3.2577803 -2.665342 1.75282400 1.00000 0.00000             
Pb    core 18.178451 0.5802052 -5.309551 1.75282400 1.00000 0.00000             
S     core 17.655917 3.6668396 18.333494 -1.7528240 1.00000 0.00000             
Pb    core 16.506634 1.9353430 20.223990 1.75282400 1.00000 0.00000             
S     core 20.794540 -2.919582 3.7996362 -1.7528240 1.00000 0.00000             
S     core 17.103836 -7.144325 4.0867615 -1.7528240 1.00000 0.00000             
S     core 17.870102 -3.619984 0.5595470 -1.7528240 1.00000 0.00000             
Pb    core 18.135920 -2.569573 3.2787735 1.75282400 1.00000 0.00000             
Pb    core 17.827008 -6.215854 1.5907553 1.75282400 1.00000 0.00000             
S     core 18.104415 -2.753493 12.255521 -1.7528240 1.00000 0.00000             
Pb    core 17.862624 -2.310810 14.936189 1.75282400 1.00000 0.00000             
Pb    core 19.902820 -4.486871 10.979576 1.75282400 1.00000 0.00000             
S     core 17.658486 12.147417 -2.834034 -1.7528240 1.00000 0.00000             
Pb    core 17.978952 14.809581 -3.078910 1.75282400 1.00000 0.00000             
Pb    core 16.665631 10.571598 -7.820714 1.75282400 1.00000 0.00000             
Pb    core 16.464316 11.132472 19.826541 1.75282400 1.00000 0.00000             
S     core 18.108152 17.022183 3.0738448 -1.7528240 1.00000 0.00000             
Pb    core 17.416922 18.436432 0.8055744 1.75282400 1.00000 0.00000             
Pb    core 17.515018 19.219098 10.008945 1.75282400 1.00000 0.00000             
S     core 9.0365582 2.9188435 -8.815240 -1.7528240 1.00000 0.00000             
S     core 6.1952284 -0.056311 -8.774062 -1.7528240 1.00000 0.00000             
Pb    core 6.2571643 2.6942388 -8.558199 1.75282400 1.00000 0.00000             
Pb    core 9.2627591 -0.248219 -8.860702 1.75282400 1.00000 0.00000             
S     core 9.1137902 -3.090317 -2.602626 -1.7528240 1.00000 0.00000             
S     core 6.2232441 -6.083941 -2.568607 -1.7528240 1.00000 0.00000             
S     core 8.9951633 -5.888727 -5.449406 -1.7528240 1.00000 0.00000             
S     core 6.2138119 -3.079085 -5.733809 -1.7528240 1.00000 0.00000             
Pb    core 6.1353030 -3.120788 -2.797161 1.75282400 1.00000 0.00000             
Pb    core 9.1308141 -6.168970 -2.608615 1.75282400 1.00000 0.00000             
Pb    core 9.2070246 -3.089925 -5.976262 1.75282400 1.00000 0.00000             
Pb    core 6.2251384 -5.939364 -5.514240 1.75282400 1.00000 0.00000             
S     core 8.2872656 -2.353575 21.348227 -1.7528240 1.00000 0.00000             
S     core 8.8145618 -5.753539 18.084139 -1.7528240 1.00000 0.00000             
S     core 6.1911919 -2.521663 18.133100 -1.7528240 1.00000 0.00000             
Pb    core 5.6392117 -2.270928 21.084787 1.75282400 1.00000 0.00000             
Pb    core 9.1945116 -2.888745 18.729889 1.75282400 1.00000 0.00000             
Pb    core 6.0928760 -5.439540 18.102027 1.75282400 1.00000 0.00000             
S     core 8.6478063 -9.857480 3.9807046 -1.7528240 1.00000 0.00000             
S     core 6.4260696 -8.909829 0.5270638 -1.7528240 1.00000 0.00000             
Pb    core 6.3466550 -8.422642 3.2234176 1.75282400 1.00000 0.00000             
Pb    core 9.2861621 -9.162203 0.0417119 1.75282400 1.00000 0.00000             
S     core 9.0028613 -8.566348 15.330427 -1.7528240 1.00000 0.00000             
S     core 6.2554805 -8.671673 12.253656 -1.7528240 1.00000 0.00000             
Pb    core 6.2673960 -8.652751 15.104857 1.75282400 1.00000 0.00000             
Pb    core 9.1973738 -8.669652 12.416573 1.75282400 1.00000 0.00000             
S     core 8.3166020 16.512021 -7.691554 -1.7528240 1.00000 0.00000             
S     core 6.3800054 11.779870 -8.908095 -1.7528240 1.00000 0.00000             
Pb    core 6.2108747 14.794952 -8.801717 1.75282400 1.00000 0.00000             
Pb    core 9.0892437 11.425612 -8.978925 1.75282400 1.00000 0.00000             
S     core 6.1090267 17.612428 -3.004862 -1.7528240 1.00000 0.00000             
S     core 8.3380193 19.371826 -4.934683 -1.7528240 1.00000 0.00000             
Pb    core 6.2752245 20.539401 -3.216564 1.75282400 1.00000 0.00000             
Pb    core 8.9252440 17.735035 -2.768280 1.75282400 1.00000 0.00000             
Pb    core 6.1334384 17.619770 -6.006627 1.75282400 1.00000 0.00000             
S     core 8.7110800 18.135439 17.558564 -1.7528240 1.00000 0.00000             
Pb    core 5.9475523 18.208969 17.270090 1.75282400 1.00000 0.00000             
S     core 3.1889396 8.7786766 -8.935960 -1.7528240 1.00000 0.00000             
S     core 0.3581584 5.7223746 -8.889230 -1.7528240 1.00000 0.00000             
Pb    core 0.0110712 8.9228206 -8.978043 1.75282400 1.00000 0.00000             
Pb    core 3.0806678 5.9578771 -8.628156 1.75282400 1.00000 0.00000             
S     core 3.1838975 2.8183909 -2.825969 -1.7528240 1.00000 0.00000             
S     core 0.2077642 -0.190484 -2.919595 -1.7528240 1.00000 0.00000             
S     core 3.2613405 -0.168636 -5.810548 -1.7528240 1.00000 0.00000             
S     core 0.2985091 2.8837087 -5.854123 -1.7528240 1.00000 0.00000             
Pb    core 0.1963901 2.7490396 -2.890992 1.75282400 1.00000 0.00000             
Pb    core 3.1520299 -0.227191 -2.864403 1.75282400 1.00000 0.00000             
Pb    core 3.1403281 2.7209940 -5.785645 1.75282400 1.00000 0.00000             
Pb    core 0.2421068 -0.282197 -6.059732 1.75282400 1.00000 0.00000             
S     core 3.0037905 3.5778021 20.879146 -1.7528240 1.00000 0.00000             
S     core 0.0584543 0.9053900 21.088983 -1.7528240 1.00000 0.00000             
S     core 3.1284521 0.4896148 17.972945 -1.7528240 1.00000 0.00000             
S     core -0.033772 3.3245711 17.943326 -1.7528240 1.00000 0.00000             
Pb    core -2.572503 0.7841636 21.707777 1.75282400 1.00000 0.00000             
Pb    core 2.8891771 0.5028645 21.067199 1.75282400 1.00000 0.00000             
Pb    core 3.0939590 3.3745602 17.948254 1.75282400 1.00000 0.00000             
Pb    core 0.3523169 0.3972266 18.276126 1.75282400 1.00000 0.00000             
S     core 3.1720791 -2.900259 3.2792302 -1.7528240 1.00000 0.00000             
S     core 0.3712586 -5.983738 3.3774959 -1.7528240 1.00000 0.00000             
S     core 3.3709452 -6.036343 0.5269164 -1.7528240 1.00000 0.00000             
S     core 0.2941195 -3.097091 0.2835992 -1.7528240 1.00000 0.00000             
Pb    core 0.1167257 -3.011859 3.2209501 1.75282400 1.00000 0.00000             
Pb    core 3.2047369 -5.761097 3.3645701 1.75282400 1.00000 0.00000             
Pb    core 3.2320931 -3.035207 0.2413495 1.75282400 1.00000 0.00000             
Pb    core 0.4066510 -5.958090 0.4555999 1.75282400 1.00000 0.00000             
S     core 3.0561996 -2.454640 15.165970 -1.7528240 1.00000 0.00000             
S     core 0.0699019 -5.259469 16.223707 -1.7528240 1.00000 0.00000             
S     core 3.0497420 -5.699999 12.331849 -1.7528240 1.00000 0.00000             
S     core 0.0141543 -2.823771 12.361786 -1.7528240 1.00000 0.00000             
Pb    core 0.1915420 -2.614040 15.312879 1.75282400 1.00000 0.00000             
Pb    core 2.8477480 -6.166792 15.583345 1.75282400 1.00000 0.00000             
Pb    core 3.0711163 -2.826332 12.278423 1.75282400 1.00000 0.00000             
Pb    core 0.1257235 -5.966966 12.097022 1.75282400 1.00000 0.00000             
S     core 3.3215360 -8.825207 9.3048129 -1.7528240 1.00000 0.00000             
S     core 0.4765853 -8.924501 6.2890793 -1.7528240 1.00000 0.00000             
Pb    core 0.2061092 -9.034094 9.3967913 1.75282400 1.00000 0.00000             
Pb    core 3.2426997 -8.827892 6.4666362 1.75282400 1.00000 0.00000             
S     core 3.1587455 14.594399 -2.979196 -1.7528240 1.00000 0.00000             
S     core -0.004886 11.704460 -2.921406 -1.7528240 1.00000 0.00000             
S     core 3.1914896 11.584109 -5.915522 -1.7528240 1.00000 0.00000             
S     core 0.4501546 14.407329 -5.871814 -1.7528240 1.00000 0.00000             
Pb    core 0.3632430 14.615495 -3.135580 1.75282400 1.00000 0.00000             
Pb    core 3.0633175 11.717650 -3.024399 1.75282400 1.00000 0.00000             
Pb    core 3.2388532 14.614198 -6.172575 1.75282400 1.00000 0.00000             
Pb    core 0.1739137 11.590711 -5.901618 1.75282400 1.00000 0.00000             
S     core 0.2562835 12.242704 20.704687 -1.7528240 1.00000 0.00000             
S     core 2.9416730 12.410967 17.797381 -1.7528240 1.00000 0.00000             
S     core -0.104521 15.461233 17.576344 -1.7528240 1.00000 0.00000             
Pb    core 2.9287529 12.020179 20.754004 1.75282400 1.00000 0.00000             
Pb    core 2.8755122 15.214178 17.475505 1.75282400 1.00000 0.00000             
Pb    core -0.042535 12.236980 17.933848 1.75282400 1.00000 0.00000             
S     core 2.9187525 20.856852 2.6119891 -1.7528240 1.00000 0.00000             
S     core -0.108333 17.764911 2.7216232 -1.7528240 1.00000 0.00000             
S     core 2.9777342 17.776151 -0.215702 -1.7528240 1.00000 0.00000             
S     core -0.005933 20.578847 -0.063488 -1.7528240 1.00000 0.00000             
Pb    core -0.269751 20.909132 2.5991384 1.75282400 1.00000 0.00000             
Pb    core 2.7837318 17.912291 2.6287415 1.75282400 1.00000 0.00000             
Pb    core 2.6563403 20.842842 -0.463458 1.75282400 1.00000 0.00000             
Pb    core -0.179411 17.906721 -0.606699 1.75282400 1.00000 0.00000             
S     core -0.131626 18.069134 14.915628 -1.7528240 1.00000 0.00000             
S     core 3.0351317 18.116502 11.626262 -1.7528240 1.00000 0.00000             
S     core 0.5164994 20.934019 11.682179 -1.7528240 1.00000 0.00000             
Pb    core 2.7696131 18.164460 14.452006 1.75282400 1.00000 0.00000             
Pb    core 3.0991903 21.010164 11.137371 1.75282400 1.00000 0.00000             
Pb    core -0.153955 18.262790 11.530389 1.75282400 1.00000 0.00000             
S     core -2.924677 8.6962830 -2.847415 -1.7528240 1.00000 0.00000             
S     core -5.854165 5.6619243 -2.955033 -1.7528240 1.00000 0.00000             
S     core -2.739532 5.7642499 -5.937827 -1.7528240 1.00000 0.00000             
S     core -5.857437 8.4390992 -5.769648 -1.7528240 1.00000 0.00000             
Pb    core -5.767697 8.5161686 -2.882490 1.75282400 1.00000 0.00000             
Pb    core -2.846013 5.7231669 -2.978945 1.75282400 1.00000 0.00000             
Pb    core -3.096626 9.0441725 -6.475854 1.75282400 1.00000 0.00000             
Pb    core -5.570381 5.6775928 -5.847726 1.75282400 1.00000 0.00000             
S     core -3.036315 9.0580917 20.606062 -1.7528240 1.00000 0.00000             
S     core -2.929571 6.2591665 17.843283 -1.7528240 1.00000 0.00000             
S     core -5.828009 9.0869877 17.759587 -1.7528240 1.00000 0.00000             
Pb    core -2.760456 6.2876474 20.803757 1.75282400 1.00000 0.00000             
Pb    core -2.830307 9.0841252 17.668833 1.75282400 1.00000 0.00000             
Pb    core -5.837892 6.2760796 17.638639 1.75282400 1.00000 0.00000             
S     core -2.847773 2.9175345 3.1028366 -1.7528240 1.00000 0.00000             
S     core -5.733069 -0.062655 3.1582810 -1.7528240 1.00000 0.00000             
S     core -2.734598 -0.130334 0.1823480 -1.7528240 1.00000 0.00000             
S     core -5.750836 2.8412654 0.1889718 -1.7528240 1.00000 0.00000             
Pb    core -5.826274 2.8355295 3.0385419 1.75282400 1.00000 0.00000             
Pb    core -2.801311 -0.169744 3.0954110 1.75282400 1.00000 0.00000             
Pb    core -2.838676 2.8100029 0.0062416 1.75282400 1.00000 0.00000             
Pb    core -5.635248 -0.079102 0.2457087 1.75282400 1.00000 0.00000             
S     core -2.991148 3.1237556 15.056870 -1.7528240 1.00000 0.00000             
S     core -5.043528 -0.013552 16.649364 -1.7528240 1.00000 0.00000             
S     core -2.880233 0.1208403 12.106647 -1.7528240 1.00000 0.00000             
S     core -5.814984 3.1126470 11.966214 -1.7528240 1.00000 0.00000             
Pb    core -6.300763 2.5319693 15.251121 1.75282400 1.00000 0.00000             
Pb    core -2.794776 0.1911767 14.941060 1.75282400 1.00000 0.00000             
Pb    core -2.918021 3.1144962 12.025001 1.75282400 1.00000 0.00000             
Pb    core -5.689987 0.0215142 11.649858 1.75282400 1.00000 0.00000             
S     core -2.872710 -2.861596 9.1894216 -1.7528240 1.00000 0.00000             
S     core -5.631609 -5.813377 8.9544016 -1.7528240 1.00000 0.00000             
S     core -2.688978 -6.019792 6.2217238 -1.7528240 1.00000 0.00000             
S     core -5.832720 -2.986642 6.1507053 -1.7528240 1.00000 0.00000             
Pb    core -5.991881 -2.989662 9.0507947 1.75282400 1.00000 0.00000             
Pb    core -2.759573 -6.227780 9.1943235 1.75282400 1.00000 0.00000             
Pb    core -2.859977 -3.084380 6.1174168 1.75282400 1.00000 0.00000             
Pb    core -5.573916 -5.916670 6.1576161 1.75282400 1.00000 0.00000             
S     core -3.013935 14.787741 2.7295090 -1.7528240 1.00000 0.00000             
S     core -5.925485 11.591189 2.9613260 -1.7528240 1.00000 0.00000             
S     core -2.987427 11.747778 -0.123023 -1.7528240 1.00000 0.00000             
S     core -5.976364 14.617253 -0.245968 -1.7528240 1.00000 0.00000             
Pb    core -6.207297 14.684939 2.6848238 1.75282400 1.00000 0.00000             
Pb    core -2.916036 11.849021 2.8855375 1.75282400 1.00000 0.00000             
Pb    core -3.009763 14.653941 -0.130679 1.75282400 1.00000 0.00000             
Pb    core -5.851889 11.520970 0.0506996 1.75282400 1.00000 0.00000             
S     core -4.042826 16.398690 15.830092 -1.7528240 1.00000 0.00000             
S     core -5.730127 12.321291 14.592070 -1.7528240 1.00000 0.00000             
S     core -2.965389 12.175146 11.869093 -1.7528240 1.00000 0.00000             
S     core -5.874957 15.326364 11.786448 -1.7528240 1.00000 0.00000             
Pb    core -6.134481 14.985734 14.498676 1.75282400 1.00000 0.00000             
Pb    core -2.985970 11.920705 14.782008 1.75282400 1.00000 0.00000             
Pb    core -3.048766 15.020719 11.395644 1.75282400 1.00000 0.00000             
Pb    core -6.275956 12.146800 11.720972 1.75282400 1.00000 0.00000             
S     core -2.787441 20.893400 8.5452738 -1.7528240 1.00000 0.00000             
S     core -5.796077 17.849698 8.1984370 -1.7528240 1.00000 0.00000             
S     core -2.918546 17.869641 5.6871019 -1.7528240 1.00000 0.00000             
Pb    core -2.955804 18.119551 8.5415930 1.75282400 1.00000 0.00000             
Pb    core -2.835152 20.997026 5.8361690 1.75282400 1.00000 0.00000             
Pb    core -5.788917 17.754898 5.4127074 1.75282400 1.00000 0.00000             
S     core -9.722996 8.5059029 3.7014385 -1.7528240 1.00000 0.00000             
S     core -8.781924 5.9173989 0.0831224 -1.7528240 1.00000 0.00000             
Pb    core -8.802475 5.7729908 2.8830090 1.75282400 1.00000 0.00000             
Pb    core -8.867445 8.6820829 -0.381676 1.75282400 1.00000 0.00000             
S     core -8.928094 6.2360701 11.828156 -1.7528240 1.00000 0.00000             
Pb    core -8.898708 6.1138868 14.557050 1.75282400 1.00000 0.00000             
Pb    core -9.059375 8.8795988 11.053661 1.75282400 1.00000 0.00000             
S     core -8.820553 2.8010490 9.3565685 -1.7528240 1.00000 0.00000             
S     core -8.801975 0.1325300 6.0104237 -1.7528240 1.00000 0.00000             
Pb    core -8.828748 0.0463443 8.7961384 1.75282400 1.00000 0.00000             
Pb    core -8.737497 2.8747135 5.8483033 1.75282400 1.00000 0.00000             
S     core -8.947242 15.024192 8.2638541 -1.7528240 1.00000 0.00000             
S     core -8.846850 11.742005 5.9883827 -1.7528240 1.00000 0.00000             
Pb    core -9.159786 12.404806 8.8103579 1.75282400 1.00000 0.00000             
Pb    core -8.974554 14.708373 5.5866971 1.75282400 1.00000 0.00000             
S     core 14.926117 8.7056758 -8.748656 -1.7528240 1.00000 0.00000             
S     core 11.927867 5.9043268 -8.807584 -1.7528240 1.00000 0.00000             
Pb    core 12.057456 8.8296466 -8.909854 1.75282400 1.00000 0.00000             
Pb    core 14.790050 5.9698566 -8.861137 1.75282400 1.00000 0.00000             
S     core 15.138649 3.0367649 -2.621251 -1.7528240 1.00000 0.00000             
S     core 12.271937 -0.186683 -2.688212 -1.7528240 1.00000 0.00000             
S     core 15.460947 -0.212396 -5.448193 -1.7528240 1.00000 0.00000             
S     core 12.166541 2.8329619 -5.692930 -1.7528240 1.00000 0.00000             
Pb    core 12.143986 2.9125421 -2.820808 1.75282400 1.00000 0.00000             
Pb    core 15.120166 0.2681734 -2.668189 1.75282400 1.00000 0.00000             
Pb    core 15.107318 2.8378418 -6.164037 1.75282400 1.00000 0.00000             
Pb    core 12.240899 -0.195910 -5.921144 1.75282400 1.00000 0.00000             
S     core 14.793071 3.8941701 21.007979 -1.7528240 1.00000 0.00000             
S     core 11.692908 0.8485587 21.125636 -1.7528240 1.00000 0.00000             
S     core 15.014467 0.5460441 18.317463 -1.7528240 1.00000 0.00000             
S     core 11.823735 3.5289407 18.025322 -1.7528240 1.00000 0.00000             
Pb    core 11.808532 3.5416090 21.111279 1.75282400 1.00000 0.00000             
Pb    core 14.635851 3.4954722 18.060903 1.75282400 1.00000 0.00000             
Pb    core 11.821996 0.4247512 18.379994 1.75282400 1.00000 0.00000             
S     core 15.085797 -2.895064 3.3859554 -1.7528240 1.00000 0.00000             
S     core 11.930586 -5.943257 3.4607295 -1.7528240 1.00000 0.00000             
S     core 15.169837 -5.928176 0.5754736 -1.7528240 1.00000 0.00000             
S     core 12.224092 -3.050268 0.3151817 -1.7528240 1.00000 0.00000             
Pb    core 12.044711 -2.852305 3.3230803 1.75282400 1.00000 0.00000             
Pb    core 14.700322 -5.762737 3.4602912 1.75282400 1.00000 0.00000             
Pb    core 15.083151 -2.972467 0.5604595 1.75282400 1.00000 0.00000             
Pb    core 12.099184 -6.259710 0.3805999 1.75282400 1.00000 0.00000             
S     core 15.208334 -2.548013 15.587864 -1.7528240 1.00000 0.00000             
S     core 12.009147 -6.003478 15.253372 -1.7528240 1.00000 0.00000             
S     core 14.815899 -5.625489 12.366812 -1.7528240 1.00000 0.00000             