# 
# Keywords:
# 
conp opti  
# 
# Options:
# 
cartesian 
S     core -2.227364 -2.340046 -9.049796 -1.7528240 1.00000 0.00000             
S     core -2.288644 -8.977264 -2.425234 -1.7528240 1.00000 0.00000             
S     core -8.921362 -2.362179 -2.441131 -1.7528240 1.00000 0.00000             
S     core 3.3266165 -2.544790 -8.933190 -1.7528240 1.00000 0.00000             
Pb    core 0.4819073 -2.520767 -8.987325 1.75282400 1.00000 0.00000             
S     core 3.2547378 -8.905695 -2.594577 -1.7528240 1.00000 0.00000             
Pb    core 0.4181102 -8.929400 -2.606958 1.75282400 1.00000 0.00000             
S     core -2.457733 3.2057593 -8.961381 -1.7528240 1.00000 0.00000             
Pb    core -2.427233 0.3711099 -9.001663 1.75282400 1.00000 0.00000             
S     core -2.801624 -2.875357 -2.922671 -1.7528240 1.00000 0.00000             
S     core -5.651148 -5.720015 -2.754063 -1.7528240 1.00000 0.00000             
S     core -2.578539 -5.709239 -5.786434 -1.7528240 1.00000 0.00000             
S     core -5.629355 -2.664719 -5.798093 -1.7528240 1.00000 0.00000             
Pb    core -6.135293 -2.846723 -2.934850 1.75282400 1.00000 0.00000             
Pb    core -2.778507 -6.186670 -2.922779 1.75282400 1.00000 0.00000             
Pb    core -2.754722 -2.836265 -6.278518 1.75282400 1.00000 0.00000             
Pb    core -5.344300 -5.425737 -5.519209 1.75282400 1.00000 0.00000             
S     core -2.420886 -2.456724 20.903947 -1.7528240 1.00000 0.00000             
S     core -2.768754 -5.830285 17.611962 -1.7528240 1.00000 0.00000             
S     core -5.799202 -2.726345 17.662959 -1.7528240 1.00000 0.00000             
Pb    core -2.951315 -2.913140 18.132727 1.75282400 1.00000 0.00000             
Pb    core -5.590872 -5.498713 17.395644 1.75282400 1.00000 0.00000             
S     core -2.530314 -8.919919 3.1186193 -1.7528240 1.00000 0.00000             
Pb    core -2.500351 -8.935810 0.2736609 1.75282400 1.00000 0.00000             
S     core -3.029245 -8.954081 14.144947 -1.7528240 1.00000 0.00000             
Pb    core -2.871817 -8.933766 11.454138 1.75282400 1.00000 0.00000             
S     core -2.259501 14.401504 -9.020069 -1.7528240 1.00000 0.00000             
Pb    core -2.446356 11.687724 -8.983003 1.75282400 1.00000 0.00000             
S     core -2.347879 21.012473 -2.333632 -1.7528240 1.00000 0.00000             
S     core -5.693862 17.743950 -2.709653 -1.7528240 1.00000 0.00000             
S     core -2.619545 17.761069 -5.733799 -1.7528240 1.00000 0.00000             
Pb    core -2.822553 18.226135 -2.869606 1.75282400 1.00000 0.00000             
Pb    core -5.383846 17.461489 -5.479071 1.75282400 1.00000 0.00000             
S     core -2.799847 17.659426 17.734250 -1.7528240 1.00000 0.00000             
Pb    core -5.549617 17.482927 17.534598 1.75282400 1.00000 0.00000             
S     core -8.854892 3.1822342 -2.643339 -1.7528240 1.00000 0.00000             
Pb    core -8.877621 0.3481330 -2.638065 1.75282400 1.00000 0.00000             
S     core -8.883070 -2.580360 3.1091207 -1.7528240 1.00000 0.00000             
Pb    core -8.895739 -2.551516 0.2623680 1.75282400 1.00000 0.00000             
S     core -9.145705 -2.375604 14.280840 -1.7528240 1.00000 0.00000             
Pb    core -9.037853 -2.565668 11.563954 1.75282400 1.00000 0.00000             
S     core -8.942942 14.362832 -2.451350 -1.7528240 1.00000 0.00000             
Pb    core -8.890379 11.650978 -2.644707 1.75282400 1.00000 0.00000             
S     core 14.555036 -2.289928 -8.873522 -1.7528240 1.00000 0.00000             
Pb    core 11.818869 -2.510353 -8.901248 1.75282400 1.00000 0.00000             
S     core 14.399894 -9.074932 -2.329868 -1.7528240 1.00000 0.00000             
Pb    core 11.690732 -8.984433 -2.531470 1.75282400 1.00000 0.00000             
S     core 21.015994 -2.961922 -2.079049 -1.7528240 1.00000 0.00000             
S     core 17.721456 -5.828622 -2.619629 -1.7528240 1.00000 0.00000             
S     core 17.913663 -2.658229 -5.560227 -1.7528240 1.00000 0.00000             
Pb    core 18.132708 -3.027196 -2.716571 1.75282400 1.00000 0.00000             
Pb    core 17.556718 -5.477030 -5.394360 1.75282400 1.00000 0.00000             
S     core 17.707542 -2.726993 17.820217 -1.7528240 1.00000 0.00000             
Pb    core 17.479471 -5.514210 17.503400 1.75282400 1.00000 0.00000             
S     core 17.735429 17.872511 -2.571207 -1.7528240 1.00000 0.00000             
Pb    core 17.499871 17.570908 -5.348360 1.75282400 1.00000 0.00000             
Pb    core 17.459253 17.540332 17.650147 1.75282400 1.00000 0.00000             
S     core 8.9928613 -2.533809 -8.886681 -1.7528240 1.00000 0.00000             
Pb    core 6.1441491 -2.547356 -8.905765 1.75282400 1.00000 0.00000             
S     core 8.8846185 -8.907444 -2.556638 -1.7528240 1.00000 0.00000             
Pb    core 6.0622116 -8.892209 -2.594101 1.75282400 1.00000 0.00000             
S     core 3.2695044 3.1775473 -8.774032 -1.7528240 1.00000 0.00000             
S     core 0.4527048 0.3518013 -8.860539 -1.7528240 1.00000 0.00000             
Pb    core 0.3837142 3.1762247 -8.824488 1.75282400 1.00000 0.00000             
Pb    core 3.2719175 0.3007266 -8.811818 1.75282400 1.00000 0.00000             
S     core 3.1428476 -2.892957 -2.915050 -1.7528240 1.00000 0.00000             
S     core 0.2707392 -5.959423 -2.903605 -1.7528240 1.00000 0.00000             
S     core 3.2093352 -5.759548 -5.798967 -1.7528240 1.00000 0.00000             
S     core 0.2969166 -2.845802 -6.008751 -1.7528240 1.00000 0.00000             
Pb    core 0.0926892 -2.936354 -2.997868 1.75282400 1.00000 0.00000             
Pb    core 3.1551840 -5.942394 -2.927600 1.75282400 1.00000 0.00000             
Pb    core 3.1840853 -2.875436 -5.984324 1.75282400 1.00000 0.00000             
Pb    core 0.2465992 -5.724353 -5.796219 1.75282400 1.00000 0.00000             
S     core 3.1115971 -2.660050 20.904115 -1.7528240 1.00000 0.00000             
S     core 3.0475542 -5.949246 17.694938 -1.7528240 1.00000 0.00000             
S     core 0.1588749 -2.947513 17.932667 -1.7528240 1.00000 0.00000             
Pb    core 0.2744449 -2.600898 20.951087 1.75282400 1.00000 0.00000             
Pb    core 3.0260015 -2.926704 17.989091 1.75282400 1.00000 0.00000             
Pb    core 0.0342706 -5.773224 17.759899 1.75282400 1.00000 0.00000             
S     core 3.1880164 -8.772016 3.1345805 -1.7528240 1.00000 0.00000             
S     core 0.3809292 -8.823684 0.2860061 -1.7528240 1.00000 0.00000             
Pb    core 0.3054992 -8.798463 3.0945202 1.75282400 1.00000 0.00000             
Pb    core 3.1974890 -8.788846 0.2373613 1.75282400 1.00000 0.00000             
S     core 0.3222910 -8.995893 11.889334 -1.7528240 1.00000 0.00000             
Pb    core -0.469061 -8.988678 14.564235 1.75282400 1.00000 0.00000             
Pb    core 3.0806231 -8.792349 11.548513 1.75282400 1.00000 0.00000             
S     core 3.2873502 14.624140 -8.898417 -1.7528240 1.00000 0.00000             
S     core 0.4310025 11.716831 -8.837892 -1.7528240 1.00000 0.00000             
Pb    core 0.4487932 14.589054 -8.956887 1.75282400 1.00000 0.00000             
Pb    core 3.2500943 11.775668 -8.788056 1.75282400 1.00000 0.00000             
S     core 3.1956485 20.958885 -2.518213 -1.7528240 1.00000 0.00000             
S     core 0.2229868 18.006629 -2.846601 -1.7528240 1.00000 0.00000             
S     core 3.1605158 17.827602 -5.745049 -1.7528240 1.00000 0.00000             
Pb    core 0.3600171 20.973641 -2.528873 1.75282400 1.00000 0.00000             
Pb    core 3.1096613 17.996143 -2.874589 1.75282400 1.00000 0.00000             
Pb    core 0.2058545 17.781410 -5.745523 1.75282400 1.00000 0.00000             
S     core 3.0199285 17.754397 17.857094 -1.7528240 1.00000 0.00000             
Pb    core 0.0621164 17.723148 17.802347 1.75282400 1.00000 0.00000             
S     core -2.467301 8.8540721 -8.950757 -1.7528240 1.00000 0.00000             
Pb    core -2.472183 6.0289675 -8.947444 1.75282400 1.00000 0.00000             
S     core -2.837641 3.0635507 -2.940703 -1.7528240 1.00000 0.00000             
S     core -5.901793 0.1932911 -2.927831 -1.7528240 1.00000 0.00000             
S     core -2.768348 0.2029786 -6.023465 -1.7528240 1.00000 0.00000             
S     core -5.692862 3.1114953 -5.837180 -1.7528240 1.00000 0.00000             
Pb    core -5.893062 3.0857160 -2.964996 1.75282400 1.00000 0.00000             
Pb    core -2.880986 0.0268605 -3.010408 1.75282400 1.00000 0.00000             
Pb    core -2.810344 3.0973787 -6.011951 1.75282400 1.00000 0.00000             
Pb    core -5.654233 0.1640982 -5.819529 1.75282400 1.00000 0.00000             
S     core -2.641368 3.1046089 20.902899 -1.7528240 1.00000 0.00000             
S     core -2.931252 0.1233464 17.941614 -1.7528240 1.00000 0.00000             
S     core -5.843330 3.0614107 17.754843 -1.7528240 1.00000 0.00000             
Pb    core -2.640042 0.2644100 20.915442 1.75282400 1.00000 0.00000             
Pb    core -2.966185 3.0238935 17.944190 1.75282400 1.00000 0.00000             
Pb    core -5.835251 0.1100842 17.708521 1.75282400 1.00000 0.00000             
S     core -2.865438 -2.908974 3.0294884 -1.7528240 1.00000 0.00000             
S     core -5.737748 -5.787117 3.0486326 -1.7528240 1.00000 0.00000             
S     core -2.808306 -5.966711 0.1420141 -1.7528240 1.00000 0.00000             
S     core -5.918145 -2.865714 0.1332278 -1.7528240 1.00000 0.00000             
Pb    core -5.930026 -2.902246 3.0103407 1.75282400 1.00000 0.00000             
Pb    core -2.863992 -5.952808 3.0139075 1.75282400 1.00000 0.00000             
Pb    core -2.899942 -2.943343 -0.040799 1.75282400 1.00000 0.00000             
Pb    core -5.693728 -5.742343 0.0649949 1.75282400 1.00000 0.00000             
S     core -2.858736 -2.980018 14.849495 -1.7528240 1.00000 0.00000             
S     core -5.901512 -5.665882 14.627386 -1.7528240 1.00000 0.00000             
S     core -2.884388 -5.991208 11.780824 -1.7528240 1.00000 0.00000             
S     core -6.022294 -2.878865 11.781242 -1.7528240 1.00000 0.00000             
Pb    core -6.408322 -2.853943 14.803590 1.75282400 1.00000 0.00000             
Pb    core -3.106094 -6.082566 14.750821 1.75282400 1.00000 0.00000             
Pb    core -3.016371 -2.947382 11.923458 1.75282400 1.00000 0.00000             
Pb    core -5.852660 -5.754567 11.794005 1.75282400 1.00000 0.00000             
S     core -2.565100 -8.930520 8.7393632 -1.7528240 1.00000 0.00000             
Pb    core -2.574296 -8.906342 5.9020679 1.75282400 1.00000 0.00000             
S     core -2.834986 14.910655 -2.885171 -1.7528240 1.00000 0.00000             
S     core -5.915737 11.828291 -2.912017 -1.7528240 1.00000 0.00000             
S     core -2.785374 11.845141 -6.001805 -1.7528240 1.00000 0.00000             
S     core -5.652358 14.701449 -5.773239 -1.7528240 1.00000 0.00000             
Pb    core -6.151734 14.864487 -2.915653 1.75282400 1.00000 0.00000             
Pb    core -2.897518 12.004290 -2.991657 1.75282400 1.00000 0.00000             
Pb    core -2.781749 14.885457 -6.248787 1.75282400 1.00000 0.00000             
Pb    core -5.669686 11.870593 -5.806394 1.75282400 1.00000 0.00000             
S     core -2.501615 14.292314 21.010304 -1.7528240 1.00000 0.00000             
S     core -2.949185 11.804326 17.974304 -1.7528240 1.00000 0.00000             
S     core -5.898659 14.676426 17.658041 -1.7528240 1.00000 0.00000             
Pb    core -2.627438 11.575721 21.006621 1.75282400 1.00000 0.00000             
Pb    core -2.913210 14.816148 18.261034 1.75282400 1.00000 0.00000             
Pb    core -5.779621 11.817096 17.821876 1.75282400 1.00000 0.00000             
S     core -2.585646 20.926303 3.2196265 -1.7528240 1.00000 0.00000             
S     core -5.786998 17.784770 3.1095961 -1.7528240 1.00000 0.00000             
S     core -2.854385 17.989691 0.2069410 -1.7528240 1.00000 0.00000             
Pb    core -2.904073 17.969421 3.0775525 1.75282400 1.00000 0.00000             
Pb    core -2.550457 20.959190 0.3652701 1.75282400 1.00000 0.00000             
Pb    core -5.731373 17.755830 0.1060134 1.75282400 1.00000 0.00000             
S     core -2.496681 20.959691 14.391854 -1.7528240 1.00000 0.00000             
S     core -5.890038 17.619386 14.734879 -1.7528240 1.00000 0.00000             
S     core -2.928777 17.933607 11.886851 -1.7528240 1.00000 0.00000             
Pb    core -2.903958 18.211345 14.885912 1.75282400 1.00000 0.00000             
Pb    core -2.600008 20.978128 11.668276 1.75282400 1.00000 0.00000             
Pb    core -5.757329 17.808595 11.868729 1.75282400 1.00000 0.00000             
S     core -8.861756 8.8219589 -2.641184 -1.7528240 1.00000 0.00000             
Pb    core -8.843140 5.9999980 -2.661386 1.75282400 1.00000 0.00000             
S     core -8.742529 3.1466051 3.0892181 -1.7528240 1.00000 0.00000             
S     core -8.781051 0.3230594 0.2526278 -1.7528240 1.00000 0.00000             
Pb    core -8.767487 0.2655276 3.0640911 1.75282400 1.00000 0.00000             
Pb    core -8.752105 3.1445293 0.1913440 1.75282400 1.00000 0.00000             
S     core -8.971084 3.1270794 14.518392 -1.7528240 1.00000 0.00000             
S     core -8.869458 0.3069834 11.607148 -1.7528240 1.00000 0.00000             
Pb    core -9.060841 0.3202573 14.465939 1.75282400 1.00000 0.00000             
Pb    core -8.834765 3.1206764 11.656010 1.75282400 1.00000 0.00000             
S     core -8.926078 -2.593845 8.7492667 -1.7528240 1.00000 0.00000             
Pb    core -8.903422 -2.588427 5.9121006 1.75282400 1.00000 0.00000             
S     core -8.911377 14.571224 3.0841865 -1.7528240 1.00000 0.00000             
S     core -8.798224 11.676629 0.2516806 -1.7528240 1.00000 0.00000             
Pb    core -8.785563 11.722075 3.0566125 1.75282400 1.00000 0.00000             
Pb    core -8.917199 14.547017 0.2448856 1.75282400 1.00000 0.00000             
S     core -9.042398 11.951537 11.930520 -1.7528240 1.00000 0.00000             
Pb    core -8.982687 11.346520 14.645791 1.75282400 1.00000 0.00000             
Pb    core -8.964287 14.672914 11.310562 1.75282400 1.00000 0.00000             
S     core 14.754675 3.2437086 -8.821789 -1.7528240 1.00000 0.00000             
S     core 11.835521 0.3748413 -8.786147 -1.7528240 1.00000 0.00000             
Pb    core 11.852508 3.1988915 -8.758475 1.75282400 1.00000 0.00000             
Pb    core 14.670754 0.4111089 -8.907733 1.75282400 1.00000 0.00000             
S     core 15.050928 -2.781135 -2.798571 -1.7528240 1.00000 0.00000             
S     core 11.919000 -5.974752 -2.834720 -1.7528240 1.00000 0.00000             
S     core 14.795585 -5.688630 -5.658745 -1.7528240 1.00000 0.00000             
S     core 11.963984 -2.827888 -5.913742 -1.7528240 1.00000 0.00000             
Pb    core 12.070726 -2.951773 -2.912332 1.75282400 1.00000 0.00000             
Pb    core 14.896207 -6.332741 -2.826730 1.75282400 1.00000 0.00000             
Pb    core 14.975002 -2.833072 -6.113349 1.75282400 1.00000 0.00000             
Pb    core 11.945003 -5.727665 -5.725973 1.75282400 1.00000 0.00000             
S     core 14.242753 -2.641320 21.004307 -1.7528240 1.00000 0.00000             
S     core 14.697946 -5.823007 17.727141 -1.7528240 1.00000 0.00000             
S     core 11.758402 -2.955559 17.994256 -1.7528240 1.00000 0.00000             
Pb    core 11.541016 -2.737227 20.977871 1.75282400 1.00000 0.00000             
Pb    core 14.833984 -2.980411 18.207648 1.75282400 1.00000 0.00000             
Pb    core 11.880081 -5.836815 17.767425 1.75282400 1.00000 0.00000             
S     core 14.632355 -8.900926 3.2033688 -1.7528240 1.00000 0.00000             
S     core 11.728573 -8.823051 0.3524822 -1.7528240 1.00000 0.00000             
Pb    core 11.774560 -8.790080 3.1645967 1.75282400 1.00000 0.00000             
Pb    core 14.588484 -8.987459 0.3739949 1.75282400 1.00000 0.00000             
S     core 14.586398 -9.002128 14.320169 -1.7528240 1.00000 0.00000             
S     core 11.784929 -8.852734 11.680295 -1.7528240 1.00000 0.00000             
Pb    core 11.909478 -8.990379 14.541718 1.75282400 1.00000 0.00000             
Pb    core 14.690136 -8.956761 11.611856 1.75282400 1.00000 0.00000             
S     core 14.484192 14.422049 -8.900113 -1.7528240 1.00000 0.00000             
S     core 11.802305 11.732178 -8.766103 -1.7528240 1.00000 0.00000             
Pb    core 11.763197 14.616580 -8.890947 1.75282400 1.00000 0.00000             
Pb    core 14.657321 11.719339 -8.881440 1.75282400 1.00000 0.00000             
S     core 14.359060 21.093561 -2.298135 -1.7528240 1.00000 0.00000             
S     core 11.854526 18.044837 -2.792203 -1.7528240 1.00000 0.00000             
S     core 14.738309 17.808015 -5.643625 -1.7528240 1.00000 0.00000             
Pb    core 11.648678 21.025779 -2.500903 1.75282400 1.00000 0.00000             
Pb    core 14.869805 18.318784 -2.788166 1.75282400 1.00000 0.00000             
Pb    core 11.902484 17.819654 -5.690963 1.75282400 1.00000 0.00000             
S     core 14.651524 17.924436 17.684382 -1.7528240 1.00000 0.00000             
Pb    core 11.802466 17.730870 17.937235 1.75282400 1.00000 0.00000             
S     core 18.367044 0.3046110 -2.820431 -1.7528240 1.00000 0.00000             
S     core 18.042662 3.1428162 -5.593484 -1.7528240 1.00000 0.00000             
Pb    core 17.750371 3.1008787 -2.813090 1.75282400 1.00000 0.00000             
Pb    core 21.044679 -0.401042 -2.506293 1.75282400 1.00000 0.00000             
Pb    core 17.838757 0.1485376 -5.701514 1.75282400 1.00000 0.00000             
S     core 17.705629 3.1457421 17.936653 -1.7528240 1.00000 0.00000             
Pb    core 17.737122 0.0835870 17.845297 1.75282400 1.00000 0.00000             
S     core 20.975502 -2.529490 3.3284521 -1.7528240 1.00000 0.00000             
S     core 17.858775 -5.735098 3.1422692 -1.7528240 1.00000 0.00000             
S     core 18.044639 -2.832765 0.2752455 -1.7528240 1.00000 0.00000             
Pb    core 17.972605 -2.876772 3.1794072 1.75282400 1.00000 0.00000             
Pb    core 20.979643 -2.813526 0.6010661 1.75282400 1.00000 0.00000             
Pb    core 17.797497 -5.797767 0.2006143 1.75282400 1.00000 0.00000             
S     core 21.006936 -2.305020 14.487013 -1.7528240 1.00000 0.00000             
S     core 17.792480 -5.703715 14.735493 -1.7528240 1.00000 0.00000             
S     core 18.002675 -2.839753 11.906684 -1.7528240 1.00000 0.00000             
Pb    core 18.243401 -2.862234 14.943606 1.75282400 1.00000 0.00000             
Pb    core 20.983722 -2.522623 11.774146 1.75282400 1.00000 0.00000             
Pb    core 17.809304 -5.741451 11.903643 1.75282400 1.00000 0.00000             
S     core 21.010628 14.674250 -2.144854 -1.7528240 1.00000 0.00000             
S     core 18.050594 11.952750 -2.752265 -1.7528240 1.00000 0.00000             
S     core 17.820513 14.794643 -5.603966 -1.7528240 1.00000 0.00000             
Pb    core 18.204613 15.023985 -2.731045 1.75282400 1.00000 0.00000             
Pb    core 21.006349 12.001621 -2.407207 1.75282400 1.00000 0.00000             
Pb    core 17.839688 11.978310 -5.653582 1.75282400 1.00000 0.00000             
S     core 17.576050 14.750606 17.877982 -1.7528240 1.00000 0.00000             
Pb    core 17.749514 11.901094 17.855490 1.75282400 1.00000 0.00000             
S     core 17.786083 17.867248 3.2430171 -1.7528240 1.00000 0.00000             
Pb    core 17.755034 17.868854 0.2427821 1.75282400 1.00000 0.00000             
S     core 17.607402 17.817986 14.849407 -1.7528240 1.00000 0.00000             
Pb    core 17.807591 17.750937 11.973664 1.75282400 1.00000 0.00000             
S     core 8.9997519 3.1872921 -8.738165 -1.7528240 1.00000 0.00000             
S     core 6.1441521 0.3048276 -8.785407 -1.7528240 1.00000 0.00000             
Pb    core 6.1174569 3.1697338 -8.751357 1.75282400 1.00000 0.00000             
Pb    core 8.9858708 0.3086808 -8.780272 1.75282400 1.00000 0.00000             
S     core 9.0647309 -2.891402 -2.876471 -1.7528240 1.00000 0.00000             
S     core 6.0921605 -5.931392 -2.889964 -1.7528240 1.00000 0.00000             
S     core 9.0323918 -5.750974 -5.760749 -1.7528240 1.00000 0.00000             
S     core 6.1267907 -2.866866 -5.941741 -1.7528240 1.00000 0.00000             
Pb    core 6.0803587 -2.895963 -2.915899 1.75282400 1.00000 0.00000             
Pb    core 9.0020065 -5.950822 -2.887255 1.75282400 1.00000 0.00000             
Pb    core 9.0359985 -2.869805 -5.940420 1.75282400 1.00000 0.00000             
Pb    core 6.1021537 -5.757898 -5.790879 1.75282400 1.00000 0.00000             
S     core 8.7179755 -2.676443 20.928062 -1.7528240 1.00000 0.00000             
S     core 8.8416748 -5.869929 17.768661 -1.7528240 1.00000 0.00000             
S     core 5.9387882 -2.956931 17.957072 -1.7528240 1.00000 0.00000             
Pb    core 5.9192640 -2.630755 20.955246 1.75282400 1.00000 0.00000             
Pb    core 8.8841399 -2.963495 17.985719 1.75282400 1.00000 0.00000             
Pb    core 5.9743791 -5.801466 17.856899 1.75282400 1.00000 0.00000             
S     core 8.9034942 -8.762646 3.1770340 -1.7528240 1.00000 0.00000             
S     core 6.0589329 -8.783483 0.2766022 -1.7528240 1.00000 0.00000             
Pb    core 6.0407088 -8.760080 3.1261577 1.75282400 1.00000 0.00000             
Pb    core 8.9001664 -8.789835 0.2815781 1.75282400 1.00000 0.00000             
S     core 9.1153138 -8.999307 14.595758 -1.7528240 1.00000 0.00000             
S     core 5.8610067 -8.956291 12.000123 -1.7528240 1.00000 0.00000             
Pb    core 6.4831763 -8.955966 14.699104 1.75282400 1.00000 0.00000             
Pb    core 8.9750305 -8.853946 11.741581 1.75282400 1.00000 0.00000             
S     core 8.9375462 14.631254 -8.863951 -1.7528240 1.00000 0.00000             
S     core 6.1172596 11.780156 -8.760301 -1.7528240 1.00000 0.00000             
Pb    core 6.1029759 14.633186 -8.876844 1.75282400 1.00000 0.00000             
Pb    core 8.9624142 11.787999 -8.756057 1.75282400 1.00000 0.00000             
S     core 8.8290483 20.975544 -2.501084 -1.7528240 1.00000 0.00000             
S     core 6.0417597 17.994726 -2.837379 -1.7528240 1.00000 0.00000             
S     core 8.9742800 17.839443 -5.717404 -1.7528240 1.00000 0.00000             
Pb    core 6.0064597 20.950910 -2.533429 1.75282400 1.00000 0.00000             
Pb    core 8.9532595 18.016831 -2.847489 1.75282400 1.00000 0.00000             
Pb    core 6.0555695 17.831820 -5.745871 1.75282400 1.00000 0.00000             
S     core 8.9265886 17.774507 17.874290 -1.7528240 1.00000 0.00000             
Pb    core 5.8995075 17.774544 17.877688 1.75282400 1.00000 0.00000             
S     core 3.2589838 8.8993091 -8.759966 -1.7528240 1.00000 0.00000             
S     core 0.3835462 6.0340771 -8.809950 -1.7528240 1.00000 0.00000             
Pb    core 0.3743720 8.8905468 -8.812885 1.75282400 1.00000 0.00000             
Pb    core 3.2399699 6.0382547 -8.761908 1.75282400 1.00000 0.00000             
S     core 3.1155565 3.0564567 -2.843373 -1.7528240 1.00000 0.00000             
S     core 0.1414178 0.0742280 -2.928647 -1.7528240 1.00000 0.00000             
S     core 3.1868690 0.1379589 -5.830402 -1.7528240 1.00000 0.00000             
S     core 0.2102919 3.0995178 -5.842938 -1.7528240 1.00000 0.00000             
Pb    core 0.1085253 3.0327918 -2.920953 1.75282400 1.00000 0.00000             
Pb    core 3.0883182 0.0604183 -2.908733 1.75282400 1.00000 0.00000             
Pb    core 3.1407068 3.0803569 -5.806940 1.75282400 1.00000 0.00000             
Pb    core 0.1886390 0.1155682 -5.908166 1.75282400 1.00000 0.00000             
S     core 3.0960003 3.0910816 20.813354 -1.7528240 1.00000 0.00000             
S     core 0.2575915 0.2538262 20.837004 -1.7528240 1.00000 0.00000             
S     core 3.0386718 0.0662061 17.857641 -1.7528240 1.00000 0.00000             
S     core 0.0699707 3.0339500 17.844690 -1.7528240 1.00000 0.00000             
Pb    core 0.1978260 3.0810496 20.818433 1.75282400 1.00000 0.00000             
Pb    core 3.0765579 0.2151522 20.827591 1.75282400 1.00000 0.00000             
Pb    core 3.0051717 3.0158263 17.835609 1.75282400 1.00000 0.00000             
Pb    core 0.0261300 0.0575036 17.876368 1.75282400 1.00000 0.00000             
S     core 3.0840327 -2.848106 3.0508687 -1.7528240 1.00000 0.00000             
S     core 0.1603283 -5.828569 3.0699490 -1.7528240 1.00000 0.00000             
S     core 3.1419829 -5.813352 0.1092647 -1.7528240 1.00000 0.00000             
S     core 0.1243026 -2.902524 0.0468978 -1.7528240 1.00000 0.00000             
Pb    core 0.0767296 -2.894067 2.9811024 1.75282400 1.00000 0.00000             
Pb    core 3.0900607 -5.793105 3.0230426 1.75282400 1.00000 0.00000             
Pb    core 3.0711417 -2.880866 0.0196194 1.75282400 1.00000 0.00000             
Pb    core 0.1462093 -5.863666 0.0431806 1.75282400 1.00000 0.00000             
S     core 3.0305721 -2.899771 14.931686 -1.7528240 1.00000 0.00000             
S     core 0.2234477 -6.297514 14.904998 -1.7528240 1.00000 0.00000             
S     core 3.0564581 -5.974928 12.019444 -1.7528240 1.00000 0.00000             
S     core 0.0795903 -2.984522 11.991048 -1.7528240 1.00000 0.00000             
Pb    core -0.026336 -2.899565 14.939515 1.75282400 1.00000 0.00000             
Pb    core 3.0188747 -5.697899 14.896226 1.75282400 1.00000 0.00000             
Pb    core 3.0054843 -2.880100 11.929475 1.75282400 1.00000 0.00000             
Pb    core 0.0292311 -5.904395 11.896758 1.75282400 1.00000 0.00000             
S     core 3.1387406 -8.811201 8.8432610 -1.7528240 1.00000 0.00000             
S     core 0.2920139 -8.811413 5.9948484 -1.7528240 1.00000 0.00000             
Pb    core 0.2348030 -8.850500 8.8282633 1.75282400 1.00000 0.00000             
Pb    core 3.1486138 -8.771034 5.9548821 1.75282400 1.00000 0.00000             
S     core 3.1067087 14.948335 -2.874716 -1.7528240 1.00000 0.00000             
S     core 0.1199766 11.971227 -2.903034 -1.7528240 1.00000 0.00000             
S     core 3.1647998 11.928900 -5.804582 -1.7528240 1.00000 0.00000             
S     core 0.2619454 14.904507 -5.972078 -1.7528240 1.00000 0.00000             
Pb    core 0.0616798 14.979218 -2.963674 1.75282400 1.00000 0.00000             
Pb    core 3.0696259 11.992127 -2.884893 1.75282400 1.00000 0.00000             
Pb    core 3.1500438 14.941476 -5.949603 1.75282400 1.00000 0.00000             
Pb    core 0.1703460 11.938731 -5.885867 1.75282400 1.00000 0.00000             
S     core 3.0624945 14.530598 20.989563 -1.7528240 1.00000 0.00000             
S     core 0.2291686 11.627541 20.883057 -1.7528240 1.00000 0.00000             
S     core 3.0280316 11.865086 17.899315 -1.7528240 1.00000 0.00000             
S     core 0.0948516 14.842311 18.037531 -1.7528240 1.00000 0.00000             
Pb    core 0.2244604 14.498939 21.019337 1.75282400 1.00000 0.00000             
Pb    core 3.0490042 11.682099 20.871341 1.75282400 1.00000 0.00000             
Pb    core 2.9879817 14.871337 18.030457 1.75282400 1.00000 0.00000             
Pb    core 0.0427251 11.867349 17.923913 1.75282400 1.00000 0.00000             
S     core 3.1397626 20.795411 3.2170829 -1.7528240 1.00000 0.00000             
S     core 0.1128462 17.840545 3.1283514 -1.7528240 1.00000 0.00000             
S     core 3.0971266 17.854496 0.1699691 -1.7528240 1.00000 0.00000             
S     core 0.3268247 20.853832 0.3681317 -1.7528240 1.00000 0.00000             
Pb    core 0.2580426 20.814223 3.1752622 1.75282400 1.00000 0.00000             
Pb    core 3.0485609 17.820744 3.0829167 1.75282400 1.00000 0.00000             
Pb    core 3.1447052 20.828150 0.3117777 1.75282400 1.00000 0.00000             
Pb    core 0.1041574 17.894409 0.0983154 1.75282400 1.00000 0.00000             
S     core 3.0540846 20.908653 14.653252 -1.7528240 1.00000 0.00000             
S     core 0.0970950 17.964715 14.932227 -1.7528240 1.00000 0.00000             
S     core 3.0454038 17.834312 11.976672 -1.7528240 1.00000 0.00000             
S     core 0.2518596 20.834291 11.737053 -1.7528240 1.00000 0.00000             
Pb    core 0.2279064 20.959670 14.596285 1.75282400 1.00000 0.00000             
Pb    core 2.9891441 17.952680 14.964775 1.75282400 1.00000 0.00000             
Pb    core 3.0731075 20.811816 11.788583 1.75282400 1.00000 0.00000             
Pb    core 0.0639036 17.878869 11.942656 1.75282400 1.00000 0.00000             
S     core -2.847303 8.9734255 -2.928071 -1.7528240 1.00000 0.00000             
S     core -5.883428 6.0123081 -2.940757 -1.7528240 1.00000 0.00000             
S     core -2.805501 6.0242078 -5.982836 -1.7528240 1.00000 0.00000             
S     core -5.701383 8.9269325 -5.828890 -1.7528240 1.00000 0.00000             
Pb    core -5.899517 8.9327131 -2.958427 1.75282400 1.00000 0.00000             
Pb    core -2.848969 6.0154155 -2.957125 1.75282400 1.00000 0.00000             
Pb    core -2.818407 8.9478427 -6.002304 1.75282400 1.00000 0.00000             
Pb    core -5.698114 6.0167670 -5.843760 1.75282400 1.00000 0.00000             
S     core -2.668445 8.7627413 20.918748 -1.7528240 1.00000 0.00000             
S     core -2.966909 5.9709100 17.954685 -1.7528240 1.00000 0.00000             
S     core -5.873990 8.9359863 17.744830 -1.7528240 1.00000 0.00000             
Pb    core -2.660995 5.9214068 20.916230 1.75282400 1.00000 0.00000             
Pb    core -2.962916 8.8696001 17.980222 1.75282400 1.00000 0.00000             