# 
# Keywords:
# 
conp opti  
# 
# Options:
# 
cartesian 
S     core -2.926587 -3.001073 -2.673206 -1.7528240 1.00000 0.00000             
S     core 3.0895054 3.0826595 -8.960624 -1.7528240 1.00000 0.00000             
Pb    core 0.1631640 3.2531777 -8.766433 1.75282400 1.00000 0.00000             
Pb    core 3.4149156 0.3084263 -8.935705 1.75282400 1.00000 0.00000             
S     core 3.3545538 -2.978122 -2.961331 -1.7528240 1.00000 0.00000             
S     core 0.8688721 -6.188284 -2.741019 -1.7528240 1.00000 0.00000             
S     core 0.7295240 -2.787110 -6.064034 -1.7528240 1.00000 0.00000             
Pb    core -0.269282 -3.721964 -3.567480 1.75282400 1.00000 0.00000             
Pb    core 3.5160373 -5.821556 -2.844346 1.75282400 1.00000 0.00000             
Pb    core 3.3938162 -2.824205 -5.806228 1.75282400 1.00000 0.00000             
S     core 0.9498045 -2.805606 18.043093 -1.7528240 1.00000 0.00000             
Pb    core 3.6360090 -2.931931 17.819465 1.75282400 1.00000 0.00000             
S     core 3.5114929 -9.031425 2.9672841 -1.7528240 1.00000 0.00000             
Pb    core 0.5897033 -8.948922 3.2240829 1.75282400 1.00000 0.00000             
Pb    core 3.7625229 -8.983141 0.1921582 1.75282400 1.00000 0.00000             
Pb    core 3.9815014 -8.889046 11.731567 1.75282400 1.00000 0.00000             
Pb    core 3.0618764 11.918445 -8.742362 1.75282400 1.00000 0.00000             
S     core 0.0915863 17.669680 -2.649307 -1.7528240 1.00000 0.00000             
Pb    core 2.7535345 17.691467 -2.823301 1.75282400 1.00000 0.00000             
S     core -2.873483 2.7073567 -3.115392 -1.7528240 1.00000 0.00000             
S     core -5.787746 -0.048786 -3.062526 -1.7528240 1.00000 0.00000             
S     core -1.487641 1.2674389 -7.932159 -1.7528240 1.00000 0.00000             
Pb    core -5.712261 2.6517938 -2.711427 1.75282400 1.00000 0.00000             
Pb    core -2.860238 -0.202402 -2.763833 1.75282400 1.00000 0.00000             
Pb    core -2.604346 2.9782476 -6.057703 1.75282400 1.00000 0.00000             
S     core -1.469377 1.2140318 19.936727 -1.7528240 1.00000 0.00000             
Pb    core -2.506241 2.9871855 18.075220 1.75282400 1.00000 0.00000             
S     core -2.621355 -3.380319 3.0014474 -1.7528240 1.00000 0.00000             
S     core -1.196385 -8.144135 1.3464732 -1.7528240 1.00000 0.00000             
S     core -5.596329 -3.594992 0.4900133 -1.7528240 1.00000 0.00000             
Pb    core -5.462262 -3.228597 3.2152044 1.75282400 1.00000 0.00000             
Pb    core -2.301766 -6.340172 3.1408925 1.75282400 1.00000 0.00000             
Pb    core -2.738522 -3.050523 0.1234473 1.75282400 1.00000 0.00000             
S     core -2.824219 -3.301950 14.363702 -1.7528240 1.00000 0.00000             
S     core -3.998082 -5.404188 10.989278 -1.7528240 1.00000 0.00000             
S     core -7.019792 -2.414339 11.087782 -1.7528240 1.00000 0.00000             
Pb    core -5.185286 -3.829018 12.981835 1.75282400 1.00000 0.00000             
S     core -3.325355 14.311651 -2.732907 -1.7528240 1.00000 0.00000             
S     core -6.424839 10.866081 -3.155223 -1.7528240 1.00000 0.00000             
S     core -2.886453 11.134339 -6.392616 -1.7528240 1.00000 0.00000             
Pb    core -4.329838 12.351734 -4.334110 1.75282400 1.00000 0.00000             
S     core -1.795226 10.737496 19.610645 -1.7528240 1.00000 0.00000             
S     core -2.167370 19.639107 1.4625530 -1.7528240 1.00000 0.00000             
Pb    core -3.079417 17.808679 3.3262135 1.75282400 1.00000 0.00000             
S     core -4.988347 16.337678 10.872499 -1.7528240 1.00000 0.00000             
S     core -8.885219 2.3392585 3.1697185 -1.7528240 1.00000 0.00000             
Pb    core -8.579063 -0.413433 3.6880004 1.75282400 1.00000 0.00000             
Pb    core -8.660586 2.6742475 0.3791963 1.75282400 1.00000 0.00000             
Pb    core -8.752985 2.7852852 11.927723 1.75282400 1.00000 0.00000             
Pb    core -8.961646 11.284620 3.3055570 1.75282400 1.00000 0.00000             
Pb    core 11.934134 3.7587404 -8.825050 1.75282400 1.00000 0.00000             
S     core 15.213527 -2.965922 -2.253349 -1.7528240 1.00000 0.00000             
S     core 11.783439 -5.990021 -2.515756 -1.7528240 1.00000 0.00000             
S     core 11.623492 -2.614879 -5.901065 -1.7528240 1.00000 0.00000             
Pb    core 12.436117 -3.134674 -3.106033 1.75282400 1.00000 0.00000             
S     core 12.087313 -2.175060 17.841228 -1.7528240 1.00000 0.00000             
Pb    core 12.650337 -8.323694 3.0540602 1.75282400 1.00000 0.00000             
S     core 10.056806 19.956477 -1.833828 -1.7528240 1.00000 0.00000             
S     core 18.050189 0.2993357 -2.252379 -1.7528240 1.00000 0.00000             
Pb    core 17.745091 2.9856861 -2.491969 1.75282400 1.00000 0.00000             
S     core 17.334692 -4.110523 1.1782034 -1.7528240 1.00000 0.00000             
Pb    core 17.860090 -2.707306 3.5502581 1.75282400 1.00000 0.00000             
S     core 18.158211 -1.972885 11.982521 -1.7528240 1.00000 0.00000             
S     core 16.963564 11.108342 -4.394130 -1.7528240 1.00000 0.00000             
S     core 9.1783041 3.2060430 -9.049840 -1.7528240 1.00000 0.00000             
S     core 6.1116258 0.4698352 -9.093172 -1.7528240 1.00000 0.00000             
Pb    core 6.1024821 3.3029218 -8.904028 1.75282400 1.00000 0.00000             
Pb    core 8.7822743 0.4264080 -8.932725 1.75282400 1.00000 0.00000             
S     core 9.0246883 -2.826296 -2.932769 -1.7528240 1.00000 0.00000             
S     core 6.3154783 -5.815688 -2.784172 -1.7528240 1.00000 0.00000             
S     core 6.1866242 -2.667987 -5.908192 -1.7528240 1.00000 0.00000             
Pb    core 6.1870418 -2.864248 -2.927182 1.75282400 1.00000 0.00000             
Pb    core 9.1253833 -5.643771 -2.825992 1.75282400 1.00000 0.00000             
Pb    core 8.9738229 -2.680873 -5.776918 1.75282400 1.00000 0.00000             
S     core 6.4673561 -2.714404 17.883376 -1.7528240 1.00000 0.00000             
Pb    core 9.3729286 -2.526316 17.743607 1.75282400 1.00000 0.00000             
S     core 9.6042010 -8.741645 2.8464302 -1.7528240 1.00000 0.00000             
S     core 6.4691505 -9.018213 0.2447754 -1.7528240 1.00000 0.00000             
Pb    core 6.5257511 -8.837276 3.0658425 1.75282400 1.00000 0.00000             
Pb    core 9.1593965 -8.725453 0.1007864 1.75282400 1.00000 0.00000             
S     core 6.6444637 -8.993430 11.575930 -1.7528240 1.00000 0.00000             
Pb    core 9.3479356 -8.697963 11.785150 1.75282400 1.00000 0.00000             
S     core 5.8107944 11.762519 -8.920387 -1.7528240 1.00000 0.00000             
Pb    core 8.4798800 11.954717 -8.825560 1.75282400 1.00000 0.00000             
S     core 5.5058213 17.842034 -2.702695 -1.7528240 1.00000 0.00000             
Pb    core 8.2943613 18.072362 -2.680064 1.75282400 1.00000 0.00000             
S     core 2.9013591 9.0125321 -8.906263 -1.7528240 1.00000 0.00000             
S     core 0.3066401 5.9953765 -8.882290 -1.7528240 1.00000 0.00000             
Pb    core 0.0987902 8.6891623 -8.802456 1.75282400 1.00000 0.00000             
Pb    core 3.1257446 6.0276875 -8.846675 1.75282400 1.00000 0.00000             
S     core 3.1222842 2.9519429 -2.920569 -1.7528240 1.00000 0.00000             
S     core 0.0627382 0.0103966 -3.079950 -1.7528240 1.00000 0.00000             
S     core 3.1982880 0.1038450 -6.163492 -1.7528240 1.00000 0.00000             
S     core 0.3144605 3.0576981 -5.817254 -1.7528240 1.00000 0.00000             
Pb    core 0.1337970 2.8930938 -2.918147 1.75282400 1.00000 0.00000             
Pb    core 3.0244218 -0.067930 -3.006293 1.75282400 1.00000 0.00000             
Pb    core 3.1510062 3.0315905 -5.845697 1.75282400 1.00000 0.00000             
Pb    core 0.1026433 -0.101607 -6.024768 1.75282400 1.00000 0.00000             
S     core 3.0836594 2.9891439 20.983068 -1.7528240 1.00000 0.00000             
S     core 3.2713536 0.0394479 18.175413 -1.7528240 1.00000 0.00000             
S     core 0.3783446 2.9662201 17.837572 -1.7528240 1.00000 0.00000             
Pb    core 0.1912326 3.1768905 20.803560 1.75282400 1.00000 0.00000             
Pb    core 3.4237555 0.2030328 20.956815 1.75282400 1.00000 0.00000             
Pb    core 3.2091342 2.9543985 17.868095 1.75282400 1.00000 0.00000             
Pb    core 0.1907782 -0.158143 18.068947 1.75282400 1.00000 0.00000             
S     core 3.3069031 -2.994120 2.9987410 -1.7528240 1.00000 0.00000             
S     core 0.5955508 -5.999121 3.1199820 -1.7528240 1.00000 0.00000             
S     core 3.3920601 -6.218202 0.0797233 -1.7528240 1.00000 0.00000             
S     core 0.1857136 -3.237451 0.1417146 -1.7528240 1.00000 0.00000             
Pb    core 0.3518397 -3.096765 3.0369217 1.75282400 1.00000 0.00000             
Pb    core 3.4141080 -5.925596 3.0409619 1.75282400 1.00000 0.00000             
Pb    core 3.1155504 -3.059328 -0.024234 1.75282400 1.00000 0.00000             
Pb    core 0.3075369 -6.181362 -0.033942 1.75282400 1.00000 0.00000             
S     core 3.4171329 -3.025861 14.988812 -1.7528240 1.00000 0.00000             
S     core 0.5266633 -6.052946 14.438767 -1.7528240 1.00000 0.00000             
S     core 3.6411347 -6.177942 11.784916 -1.7528240 1.00000 0.00000             
S     core 0.4777625 -3.012060 11.935878 -1.7528240 1.00000 0.00000             
Pb    core 0.0930848 -3.364879 15.349068 1.75282400 1.00000 0.00000             
Pb    core 3.2495138 -5.831010 14.558723 1.75282400 1.00000 0.00000             
Pb    core 3.2727737 -3.098398 11.988930 1.75282400 1.00000 0.00000             
Pb    core -1.362609 -5.034240 12.574723 1.75282400 1.00000 0.00000             
S     core 3.5072097 -9.109961 8.9631035 -1.7528240 1.00000 0.00000             
S     core 0.8426995 -9.127417 5.9413722 -1.7528240 1.00000 0.00000             
Pb    core 0.7462588 -9.009363 8.6037677 1.75282400 1.00000 0.00000             
Pb    core 3.6613983 -8.957058 5.9264268 1.75282400 1.00000 0.00000             
S     core 2.6980648 14.861528 -3.059885 -1.7528240 1.00000 0.00000             
S     core -0.001821 11.949732 -3.045851 -1.7528240 1.00000 0.00000             
S     core 2.9944135 11.709330 -5.803105 -1.7528240 1.00000 0.00000             
S     core 1.1438522 13.592404 -7.787973 -1.7528240 1.00000 0.00000             
Pb    core -0.615530 14.918806 -2.823659 1.75282400 1.00000 0.00000             
Pb    core 2.8237096 11.888836 -2.892107 1.75282400 1.00000 0.00000             
Pb    core 2.9520128 14.605267 -5.952194 1.75282400 1.00000 0.00000             
Pb    core -0.209586 11.907017 -5.941777 1.75282400 1.00000 0.00000             
S     core 2.8922649 11.766693 18.097027 -1.7528240 1.00000 0.00000             
S     core -0.094297 14.196213 18.034546 -1.7528240 1.00000 0.00000             
Pb    core 3.1405868 11.680379 20.916861 1.75282400 1.00000 0.00000             
Pb    core 2.6911890 14.644206 17.828162 1.75282400 1.00000 0.00000             
Pb    core 0.1233814 11.474822 17.731990 1.75282400 1.00000 0.00000             
S     core 2.5474145 20.877231 2.9874260 -1.7528240 1.00000 0.00000             
S     core -0.172586 17.662363 3.2361869 -1.7528240 1.00000 0.00000             
S     core 2.5770296 18.038632 0.1369561 -1.7528240 1.00000 0.00000             
Pb    core -0.345202 20.605619 3.2116279 1.75282400 1.00000 0.00000             
Pb    core 2.6487382 17.767262 3.0778745 1.75282400 1.00000 0.00000             
Pb    core 2.8675298 20.815351 0.2035368 1.75282400 1.00000 0.00000             
Pb    core -0.545164 17.814984 0.0316089 1.75282400 1.00000 0.00000             
S     core 0.2291644 17.833453 14.798182 -1.7528240 1.00000 0.00000             
S     core 2.6581196 18.164694 11.967305 -1.7528240 1.00000 0.00000             
Pb    core 2.9255240 17.728460 14.930197 1.75282400 1.00000 0.00000             
Pb    core 3.0596108 20.929353 11.789588 1.75282400 1.00000 0.00000             
Pb    core -0.199824 17.602182 12.157029 1.75282400 1.00000 0.00000             
S     core -3.085355 8.4632628 -2.921245 -1.7528240 1.00000 0.00000             
S     core -5.920913 5.4770470 -2.674554 -1.7528240 1.00000 0.00000             
S     core -2.754046 5.7534893 -5.833263 -1.7528240 1.00000 0.00000             
Pb    core -5.899033 8.2428848 -2.898053 1.75282400 1.00000 0.00000             
Pb    core -2.928644 5.6110743 -2.926407 1.75282400 1.00000 0.00000             
Pb    core -2.869953 8.5200645 -5.752237 1.75282400 1.00000 0.00000             
S     core -2.684344 5.7986306 17.848246 -1.7528240 1.00000 0.00000             
Pb    core -2.839885 8.6231370 17.904283 1.75282400 1.00000 0.00000             
S     core -2.871106 2.7803377 3.0686852 -1.7528240 1.00000 0.00000             
S     core -5.865795 -0.370214 3.3621149 -1.7528240 1.00000 0.00000             
S     core -2.611097 -0.157718 0.1133402 -1.7528240 1.00000 0.00000             
S     core -5.945046 2.8215840 0.1737545 -1.7528240 1.00000 0.00000             
Pb    core -5.737152 2.5340696 3.0801346 1.75282400 1.00000 0.00000             
Pb    core -2.800363 -0.229407 2.9632774 1.75282400 1.00000 0.00000             
Pb    core -2.906983 2.6796025 0.0855160 1.75282400 1.00000 0.00000             
Pb    core -5.652249 -2.623906 -2.094318 1.75282400 1.00000 0.00000             
S     core -2.779424 2.7133449 15.163309 -1.7528240 1.00000 0.00000             
S     core -5.678678 0.0580398 14.638530 -1.7528240 1.00000 0.00000             
S     core -2.720229 0.0812807 11.886012 -1.7528240 1.00000 0.00000             
S     core -5.963451 2.7379122 12.006979 -1.7528240 1.00000 0.00000             
Pb    core -5.587550 2.7594589 14.941306 1.75282400 1.00000 0.00000             
Pb    core -2.841663 -0.511084 14.701131 1.75282400 1.00000 0.00000             
Pb    core -2.732380 2.8337500 11.988970 1.75282400 1.00000 0.00000             
Pb    core -5.492602 -0.172272 11.898408 1.75282400 1.00000 0.00000             
S     core -2.493171 -3.088992 8.6774189 -1.7528240 1.00000 0.00000             
S     core -2.391621 -6.139619 5.9133890 -1.7528240 1.00000 0.00000             
S     core -5.526673 -3.164244 6.0966152 -1.7528240 1.00000 0.00000             
Pb    core -5.265786 -3.351595 9.0192340 1.75282400 1.00000 0.00000             
Pb    core -2.557819 -5.920447 8.6761971 1.75282400 1.00000 0.00000             
Pb    core -2.574901 -3.195655 5.8896451 1.75282400 1.00000 0.00000             
S     core -3.309367 14.907818 3.0659724 -1.7528240 1.00000 0.00000             
S     core -6.224730 11.454271 3.3201724 -1.7528240 1.00000 0.00000             
S     core -3.237133 11.571314 0.3187113 -1.7528240 1.00000 0.00000             
S     core -6.472969 14.043680 0.7336916 -1.7528240 1.00000 0.00000             
Pb    core -6.097668 14.384589 3.3566094 1.75282400 1.00000 0.00000             
Pb    core -3.194923 11.644646 3.0924292 1.75282400 1.00000 0.00000             
Pb    core -3.632827 14.442983 -0.011643 1.75282400 1.00000 0.00000             
Pb    core -5.944015 11.654457 -0.543588 1.75282400 1.00000 0.00000             
S     core -3.081812 14.070588 15.253947 -1.7528240 1.00000 0.00000             
S     core -4.614338 10.577953 16.849636 -1.7528240 1.00000 0.00000             
S     core -2.994187 11.644470 11.895440 -1.7528240 1.00000 0.00000             
Pb    core -3.125163 12.970173 18.010258 1.75282400 1.00000 0.00000             
Pb    core -3.391141 14.510486 12.335438 1.75282400 1.00000 0.00000             
Pb    core -3.038799 11.385808 14.661322 1.75282400 1.00000 0.00000             
S     core -3.092926 17.596087 6.1535797 -1.7528240 1.00000 0.00000             
Pb    core -3.373994 17.360315 8.9013638 1.75282400 1.00000 0.00000             
S     core -9.097370 8.4690186 3.0151986 -1.7528240 1.00000 0.00000             
S     core -9.121282 5.3318786 0.4613890 -1.7528240 1.00000 0.00000             
Pb    core -8.898954 5.3545135 3.2782717 1.75282400 1.00000 0.00000             
Pb    core -9.047590 7.9864754 0.2411268 1.75282400 1.00000 0.00000             
S     core -9.062023 5.4575802 11.800614 -1.7528240 1.00000 0.00000             
Pb    core -8.875155 8.1168764 11.921880 1.75282400 1.00000 0.00000             
S     core -8.730244 2.3968464 9.1988302 -1.7528240 1.00000 0.00000             
S     core -8.753150 -0.299469 6.3546566 -1.7528240 1.00000 0.00000             
Pb    core -8.302064 -0.757440 9.0314242 1.75282400 1.00000 0.00000             
Pb    core -8.746223 2.5067203 6.2576204 1.75282400 1.00000 0.00000             
S     core -9.298025 11.146704 5.9817283 -1.7528240 1.00000 0.00000             
Pb    core -9.108007 11.289431 8.6347415 1.75282400 1.00000 0.00000             
S     core 11.782934 6.4259386 -8.868662 -1.7528240 1.00000 0.00000             
Pb    core 12.137738 9.1453306 -8.495430 1.75282400 1.00000 0.00000             
S     core 14.951091 3.2440065 -2.853846 -1.7528240 1.00000 0.00000             
S     core 12.100012 0.1533257 -2.967253 -1.7528240 1.00000 0.00000             
S     core 14.947512 0.8846155 -5.930309 -1.7528240 1.00000 0.00000             
S     core 12.004011 3.2532574 -6.115140 -1.7528240 1.00000 0.00000             
Pb    core 12.058931 3.0436781 -2.859769 1.75282400 1.00000 0.00000             
Pb    core 15.315557 -0.096496 -3.184329 1.75282400 1.00000 0.00000             
Pb    core 14.961978 3.5449709 -5.677448 1.75282400 1.00000 0.00000             
Pb    core 12.348010 0.0254779 -5.786888 1.75282400 1.00000 0.00000             
S     core 16.517798 1.3619674 16.898488 -1.7528240 1.00000 0.00000             
S     core 12.281289 3.3657183 18.174729 -1.7528240 1.00000 0.00000             
Pb    core 11.910548 3.6321605 20.872869 1.75282400 1.00000 0.00000             
Pb    core 15.099140 3.6851230 17.584604 1.75282400 1.00000 0.00000             
Pb    core 14.027024 -0.248755 16.824805 1.75282400 1.00000 0.00000             
S     core 15.052427 -2.497212 3.3926850 -1.7528240 1.00000 0.00000             
S     core 12.143528 -5.531902 3.0801891 -1.7528240 1.00000 0.00000             
S     core 14.331917 -7.086084 1.0038085 -1.7528240 1.00000 0.00000             
S     core 11.871931 -2.788304 0.1123222 -1.7528240 1.00000 0.00000             
Pb    core 12.193082 -2.603506 2.9955508 1.75282400 1.00000 0.00000             
Pb    core 15.219356 -5.296700 3.0308104 1.75282400 1.00000 0.00000             
Pb    core 15.738549 -5.306607 -0.864263 1.75282400 1.00000 0.00000             
Pb    core 12.094631 -5.530996 0.1531110 1.75282400 1.00000 0.00000             
S     core 15.215589 -2.070922 15.003897 -1.7528240 1.00000 0.00000             
S     core 11.032766 -7.714864 13.675281 -1.7528240 1.00000 0.00000             
S     core 15.053577 -5.592334 11.381833 -1.7528240 1.00000 0.00000             
S     core 12.200777 -2.845646 12.115535 -1.7528240 1.00000 0.00000             
Pb    core 12.386694 -2.563682 15.036315 1.75282400 1.00000 0.00000             
Pb    core 15.365815 -2.836152 12.243972 1.75282400 1.00000 0.00000             
Pb    core 12.373884 -5.808494 12.044596 1.75282400 1.00000 0.00000             
S     core 12.267754 -8.689559 5.7787820 -1.7528240 1.00000 0.00000             
Pb    core 12.319879 -8.668107 8.4683807 1.75282400 1.00000 0.00000             
S     core 14.732630 14.386402 -3.129426 -1.7528240 1.00000 0.00000             
S     core 11.426522 12.010124 -2.885060 -1.7528240 1.00000 0.00000             
S     core 13.825029 11.253188 -7.272740 -1.7528240 1.00000 0.00000             
S     core 11.268792 14.747798 -5.886973 -1.7528240 1.00000 0.00000             
Pb    core 11.911040 14.846882 -3.117104 1.75282400 1.00000 0.00000             
Pb    core 15.303310 13.093405 -5.530942 1.75282400 1.00000 0.00000             
Pb    core 11.603207 12.009565 -5.684049 1.75282400 1.00000 0.00000             
S     core 14.476731 11.897952 18.036408 -1.7528240 1.00000 0.00000             
S     core 10.252067 13.900687 19.873068 -1.7528240 1.00000 0.00000             
Pb    core 11.763665 12.372924 17.993187 1.75282400 1.00000 0.00000             
S     core 11.376417 18.006156 3.0756937 -1.7528240 1.00000 0.00000             
S     core 13.419049 20.035391 1.4046697 -1.7528240 1.00000 0.00000             
Pb    core 11.479965 20.997642 3.0574538 1.75282400 1.00000 0.00000             
Pb    core 14.355395 18.281042 3.2577095 1.75282400 1.00000 0.00000             
Pb    core 11.529381 18.420738 0.0349517 1.75282400 1.00000 0.00000             
S     core 11.239687 18.127247 15.129362 -1.7528240 1.00000 0.00000             
S     core 14.775880 18.225813 11.586718 -1.7528240 1.00000 0.00000             
Pb    core 13.831364 18.162916 14.165153 1.75282400 1.00000 0.00000             
S     core 17.814470 5.9255073 -2.749522 -1.7528240 1.00000 0.00000             
Pb    core 17.554761 8.7070597 -3.070931 1.75282400 1.00000 0.00000             
S     core 21.073779 3.3528951 3.0602173 -1.7528240 1.00000 0.00000             
S     core 18.340203 0.1327080 3.2554031 -1.7528240 1.00000 0.00000             
S     core 18.133850 3.5417283 0.2547703 -1.7528240 1.00000 0.00000             
Pb    core 17.908224 3.1891771 3.0315953 1.75282400 1.00000 0.00000             
Pb    core 21.025757 0.5927635 3.4793412 1.75282400 1.00000 0.00000             
Pb    core 20.846829 3.7293994 0.2634236 1.75282400 1.00000 0.00000             
Pb    core 16.924708 -1.554757 -0.403689 1.75282400 1.00000 0.00000             
S     core 19.505547 1.5403990 13.872383 -1.7528240 1.00000 0.00000             
S     core 17.771907 3.5727363 11.797630 -1.7528240 1.00000 0.00000             
Pb    core 17.654827 3.4066453 14.919214 1.75282400 1.00000 0.00000             
Pb    core 20.589649 3.6601273 12.243143 1.75282400 1.00000 0.00000             
Pb    core 17.810411 0.7247083 11.791979 1.75282400 1.00000 0.00000             
S     core 18.073097 -2.442125 6.3812239 -1.7528240 1.00000 0.00000             
Pb    core 17.958204 -2.388066 9.2287644 1.75282400 1.00000 0.00000             
S     core 17.849708 12.137471 3.1748659 -1.7528240 1.00000 0.00000             
S     core 17.516999 14.640543 0.0518341 -1.7528240 1.00000 0.00000             
Pb    core 17.444004 14.910374 2.7822665 1.75282400 1.00000 0.00000             
Pb    core 20.579408 12.184670 3.4256164 1.75282400 1.00000 0.00000             
Pb    core 16.625384 12.561200 -1.774829 1.75282400 1.00000 0.00000             
S     core 17.886145 11.850504 14.634577 -1.7528240 1.00000 0.00000             
S     core 19.581824 14.172491 10.485031 -1.7528240 1.00000 0.00000             
Pb    core 17.798876 12.484544 11.932403 1.75282400 1.00000 0.00000             
S     core 9.0678568 9.2612715 -8.826029 -1.7528240 1.00000 0.00000             
S     core 6.0501169 6.1396627 -8.898468 -1.7528240 1.00000 0.00000             
Pb    core 5.8688206 8.9694980 -8.814235 1.75282400 1.00000 0.00000             
Pb    core 8.9565430 6.3222528 -8.845696 1.75282400 1.00000 0.00000             
S     core 9.0376786 3.0769212 -2.958986 -1.7528240 1.00000 0.00000             
S     core 6.1213546 0.1028395 -3.011385 -1.7528240 1.00000 0.00000             
S     core 9.1140939 0.2408403 -6.199745 -1.7528240 1.00000 0.00000             
S     core 6.1146792 3.1051294 -5.983714 -1.7528240 1.00000 0.00000             
Pb    core 6.0777335 3.0180698 -2.881002 1.75282400 1.00000 0.00000             
Pb    core 9.2057824 0.0827202 -2.917409 1.75282400 1.00000 0.00000             
Pb    core 9.0930483 3.1479933 -5.850959 1.75282400 1.00000 0.00000             
Pb    core 6.1399250 0.1729504 -5.940457 1.75282400 1.00000 0.00000             
S     core 9.1601427 3.1204724 21.020596 -1.7528240 1.00000 0.00000             
S     core 6.1105465 0.3729700 21.144512 -1.7528240 1.00000 0.00000             
S     core 8.9149432 0.2685984 18.080776 -1.7528240 1.00000 0.00000             
S     core 6.1507100 3.0738428 17.985945 -1.7528240 1.00000 0.00000             
Pb    core 6.0879753 3.1872554 20.897878 1.75282400 1.00000 0.00000             
Pb    core 8.7816059 0.3274410 20.805021 1.75282400 1.00000 0.00000             
Pb    core 9.2436738 3.0847799 17.855736 1.75282400 1.00000 0.00000             
Pb    core 6.1301090 0.1115804 17.908797 1.75282400 1.00000 0.00000             
S     core 9.1297167 -2.775085 3.0485554 -1.7528240 1.00000 0.00000             
S     core 6.3372026 -5.923907 3.0402833 -1.7528240 1.00000 0.00000             
S     core 9.1657577 -5.939235 0.1146836 -1.7528240 1.00000 0.00000             
S     core 6.1413676 -2.935731 0.0600972 -1.7528240 1.00000 0.00000             
Pb    core 6.2201311 -2.845077 3.0130239 1.75282400 1.00000 0.00000             
Pb    core 9.2773019 -5.674818 3.0430223 1.75282400 1.00000 0.00000             
Pb    core 9.1008853 -2.771214 0.0354135 1.75282400 1.00000 0.00000             
Pb    core 6.2892940 -5.878485 0.0804859 1.75282400 1.00000 0.00000             
S     core 9.3433194 -3.123346 14.961300 -1.7528240 1.00000 0.00000             
S     core 6.1896919 -5.906246 14.680437 -1.7528240 1.00000 0.00000             
S     core 9.2643021 -5.730394 11.724164 -1.7528240 1.00000 0.00000             
S     core 6.2840306 -2.910861 11.946898 -1.7528240 1.00000 0.00000             
Pb    core 6.3433765 -3.016569 14.945442 1.75282400 1.00000 0.00000             
Pb    core 9.0384816 -6.033994 14.645675 1.75282400 1.00000 0.00000             
Pb    core 9.2752709 -2.810452 11.981336 1.75282400 1.00000 0.00000             
Pb    core 6.4305371 -5.869506 11.817206 1.75282400 1.00000 0.00000             
S     core 9.5725475 -8.847466 8.8611480 -1.7528240 1.00000 0.00000             
S     core 6.5479623 -8.893728 5.8996667 -1.7528240 1.00000 0.00000             
Pb    core 6.5931196 -8.851800 8.7699952 1.75282400 1.00000 0.00000             
Pb    core 9.4459127 -8.732061 5.8064125 1.75282400 1.00000 0.00000             
S     core 8.6753093 15.188053 -2.899597 -1.7528240 1.00000 0.00000             
S     core 5.7935880 11.961053 -2.866611 -1.7528240 1.00000 0.00000             
S     core 8.7076493 12.008219 -6.029259 -1.7528240 1.00000 0.00000             
S     core 5.7774373 14.756883 -5.786574 -1.7528240 1.00000 0.00000             
Pb    core 5.6693568 14.950074 -2.891162 1.75282400 1.00000 0.00000             
Pb    core 8.6578969 12.039225 -2.847593 1.75282400 1.00000 0.00000             
Pb    core 8.5594150 14.932802 -5.719201 1.75282400 1.00000 0.00000             
Pb    core 5.8155494 11.891965 -5.850525 1.75282400 1.00000 0.00000             
S     core 5.8086318 11.701049 20.952200 -1.7528240 1.00000 0.00000             
S     core 8.6042789 11.901255 17.829905 -1.7528240 1.00000 0.00000             
S     core 5.5037218 14.756285 17.865023 -1.7528240 1.00000 0.00000             
Pb    core 8.5369637 12.017880 20.788052 1.75282400 1.00000 0.00000             
Pb    core 8.3630368 14.806673 18.071224 1.75282400 1.00000 0.00000             
Pb    core 5.7804849 11.870058 17.892601 1.75282400 1.00000 0.00000             
S     core 8.5361943 20.990174 2.9334281 -1.7528240 1.00000 0.00000             
S     core 5.5452335 17.938977 3.1459840 -1.7528240 1.00000 0.00000             
S     core 8.4124067 17.919582 0.2424768 -1.7528240 1.00000 0.00000             
S     core 5.5381710 20.941957 0.2981199 -1.7528240 1.00000 0.00000             
Pb    core 5.6152610 20.876210 3.0892087 1.75282400 1.00000 0.00000             
Pb    core 8.5320941 17.928887 3.0700324 1.75282400 1.00000 0.00000             
Pb    core 8.2975204 20.888429 0.0218420 1.75282400 1.00000 0.00000             
Pb    core 5.5574519 17.896554 0.1566037 1.75282400 1.00000 0.00000             
S     core 5.6753450 17.888795 14.771286 -1.7528240 1.00000 0.00000             
S     core 8.3922838 18.122253 11.931944 -1.7528240 1.00000 0.00000             
S     core 5.6960467 21.129316 11.648878 -1.7528240 1.00000 0.00000             
Pb    core 8.5483714 17.892599 14.795209 1.75282400 1.00000 0.00000             
Pb    core 8.3872642 20.847637 11.728254 1.75282400 1.00000 0.00000             
Pb    core 5.6094089 17.916298 11.920013 1.75282400 1.00000 0.00000             
S     core 2.8974238 8.8837388 -2.871370 -1.7528240 1.00000 0.00000             
S     core 0.0454096 5.8901507 -2.898497 -1.7528240 1.00000 0.00000             
S     core 3.1088027 5.9832961 -5.904827 -1.7528240 1.00000 0.00000             
S     core 0.0266998 8.8388985 -6.005651 -1.7528240 1.00000 0.00000             
Pb    core -0.150296 8.9793512 -2.932976 1.75282400 1.00000 0.00000             
Pb    core 2.9856919 5.9301891 -2.863639 1.75282400 1.00000 0.00000             
Pb    core 2.9518206 8.8938978 -5.795903 1.75282400 1.00000 0.00000             
Pb    core 0.1285125 5.9148239 -5.848026 1.75282400 1.00000 0.00000             
S     core 2.8303291 8.9449086 20.888464 -1.7528240 1.00000 0.00000             
S     core 0.2885198 5.9243738 20.837054 -1.7528240 1.00000 0.00000             
S     core 3.1762947 5.8939107 17.906968 -1.7528240 1.00000 0.00000             
S     core 0.1726885 8.6559652 17.748935 -1.7528240 1.00000 0.00000             
Pb    core -0.123844 8.6286911 20.646557 1.75282400 1.00000 0.00000             
Pb    core 3.0947279 5.9609421 20.865372 1.75282400 1.00000 0.00000             
Pb    core 3.0523918 8.7680711 17.843929 1.75282400 1.00000 0.00000             
Pb    core 0.2004410 5.8051262 17.833776 1.75282400 1.00000 0.00000             
S     core 3.0720330 2.9524353 3.0155895 -1.7528240 1.00000 0.00000             
S     core 0.2120891 -0.147041 3.0089844 -1.7528240 1.00000 0.00000             
S     core 3.1223300 -0.040684 -0.007249 -1.7528240 1.00000 0.00000             