# 
# Keywords:
# 
conp opti  
# 
# Options:
# 
cartesian 
S     core 2.8108734 4.1175436 -2.919723 -1.7528240 1.00000 0.00000             
S     core -3.299090 3.9571385 3.6390042 -1.7528240 1.00000 0.00000             
S     core 8.1185619 3.5135145 -3.299692 -1.7528240 1.00000 0.00000             
Pb    core 5.4769193 3.7297543 -3.180057 1.75282400 1.00000 0.00000             
S     core 7.6818385 -3.231160 3.3674223 -1.7528240 1.00000 0.00000             
Pb    core 5.0655719 -2.931369 3.4392664 1.75282400 1.00000 0.00000             
Pb    core 2.9653227 6.7767606 -2.991926 1.75282400 1.00000 0.00000             
S     core 2.6010917 3.3755869 2.9502430 -1.7528240 1.00000 0.00000             
S     core -0.312597 0.3702248 3.2916899 -1.7528240 1.00000 0.00000             
S     core 2.4284856 0.1950296 0.2517902 -1.7528240 1.00000 0.00000             
S     core -0.259697 3.3225946 0.3008589 -1.7528240 1.00000 0.00000             
Pb    core -0.576396 3.4689101 3.2278774 1.75282400 1.00000 0.00000             
Pb    core 2.4777594 0.5644955 3.0902911 1.75282400 1.00000 0.00000             
Pb    core 2.4595255 3.0444138 -0.348781 1.75282400 1.00000 0.00000             
Pb    core -0.390175 0.5813964 0.5356781 1.75282400 1.00000 0.00000             
S     core 2.8539767 4.0525353 14.739287 -1.7528240 1.00000 0.00000             
S     core 3.8186903 0.1727500 12.012108 -1.7528240 1.00000 0.00000             
S     core 0.6893042 2.2612585 11.761544 -1.7528240 1.00000 0.00000             
Pb    core 3.3925020 2.9218230 12.069662 1.75282400 1.00000 0.00000             
Pb    core 1.1302140 -0.604504 11.498617 1.75282400 1.00000 0.00000             
S     core 2.7589334 -2.479388 9.7853444 -1.7528240 1.00000 0.00000             
Pb    core 2.0329296 -2.253736 7.2165457 1.75282400 1.00000 0.00000             
S     core 2.4862449 14.802810 3.7663124 -1.7528240 1.00000 0.00000             
S     core 3.7256627 13.087565 0.6850001 -1.7528240 1.00000 0.00000             
Pb    core 2.9985380 11.931420 3.6415156 1.75282400 1.00000 0.00000             
Pb    core 1.2319422 14.043088 1.4207410 1.75282400 1.00000 0.00000             
S     core 4.7323804 11.415124 12.921908 -1.7528240 1.00000 0.00000             
Pb    core 2.0789213 10.811001 14.052684 1.75282400 1.00000 0.00000             
S     core -2.947225 9.3861305 4.0855179 -1.7528240 1.00000 0.00000             
Pb    core -3.176037 6.6950563 3.8079250 1.75282400 1.00000 0.00000             
S     core -3.032666 3.4645993 8.9976831 -1.7528240 1.00000 0.00000             
Pb    core -3.333417 3.7164453 6.3382908 1.75282400 1.00000 0.00000             
S     core 11.288716 -0.259940 2.7416234 -1.7528240 1.00000 0.00000             
S     core 11.309697 2.4767197 -0.201455 -1.7528240 1.00000 0.00000             
Pb    core 11.269417 2.5892025 2.6103193 1.75282400 1.00000 0.00000             
Pb    core 10.822767 -0.238699 -0.031736 1.75282400 1.00000 0.00000             
S     core 12.132298 2.8654245 11.395748 -1.7528240 1.00000 0.00000             
Pb    core 11.987041 0.0854698 11.106451 1.75282400 1.00000 0.00000             
S     core 11.607946 11.032897 1.7675648 -1.7528240 1.00000 0.00000             
Pb    core 11.208147 10.544327 -1.158032 1.75282400 1.00000 0.00000             
Pb    core 12.579196 11.192015 11.497595 1.75282400 1.00000 0.00000             
S     core 9.3416737 8.7875460 -2.922749 -1.7528240 1.00000 0.00000             
S     core 5.7271069 6.8960892 -3.012999 -1.7528240 1.00000 0.00000             
Pb    core 6.8296418 9.6542143 -2.469523 1.75282400 1.00000 0.00000             
Pb    core 8.6307113 6.1685155 -3.214415 1.75282400 1.00000 0.00000             
S     core 8.4140375 2.6862412 2.8137045 -1.7528240 1.00000 0.00000             
S     core 5.2264296 -0.145632 2.9371968 -1.7528240 1.00000 0.00000             
S     core 8.0462141 -0.066848 -0.065220 -1.7528240 1.00000 0.00000             
S     core 5.3445813 3.1366557 -0.226341 -1.7528240 1.00000 0.00000             
Pb    core 5.5741021 3.0552549 2.8575804 1.75282400 1.00000 0.00000             
Pb    core 8.3219688 -0.469537 2.8067169 1.75282400 1.00000 0.00000             
Pb    core 8.3917786 2.7901595 -0.540016 1.75282400 1.00000 0.00000             
Pb    core 5.2914508 0.2094813 0.0407334 1.75282400 1.00000 0.00000             
S     core 9.2600594 0.1209935 11.667338 -1.7528240 1.00000 0.00000             
S     core 6.4951312 2.9967362 12.285669 -1.7528240 1.00000 0.00000             
Pb    core 5.5131413 3.7150852 14.857747 1.75282400 1.00000 0.00000             
Pb    core 9.3189000 2.9481766 11.559759 1.75282400 1.00000 0.00000             
Pb    core 6.5067528 0.0883423 11.816475 1.75282400 1.00000 0.00000             
S     core 8.0341501 -3.124614 8.6991688 -1.7528240 1.00000 0.00000             
S     core 4.7073790 -2.876643 6.1907175 -1.7528240 1.00000 0.00000             
Pb    core 5.3856525 -2.895784 9.1259717 1.75282400 1.00000 0.00000             
Pb    core 8.0232435 -3.238561 6.0342521 1.75282400 1.00000 0.00000             
S     core 7.8934660 14.366533 2.2741075 -1.7528240 1.00000 0.00000             
S     core 5.8980330 11.759486 3.2900685 -1.7528240 1.00000 0.00000             
S     core 8.4631169 11.243029 -0.612219 -1.7528240 1.00000 0.00000             
Pb    core 5.2374510 14.703730 3.0509963 1.75282400 1.00000 0.00000             
Pb    core 8.9749141 11.688244 2.4895590 1.75282400 1.00000 0.00000             
Pb    core 6.3951925 12.559026 0.5381595 1.75282400 1.00000 0.00000             
S     core 10.002581 11.829311 11.152955 -1.7528240 1.00000 0.00000             
Pb    core 7.4433869 11.598086 12.044479 1.75282400 1.00000 0.00000             
S     core 2.9956524 9.0613621 3.3544908 -1.7528240 1.00000 0.00000             
S     core -0.267670 6.4885536 3.0428712 -1.7528240 1.00000 0.00000             
S     core 2.1919660 7.2546050 -0.408044 -1.7528240 1.00000 0.00000             
S     core 0.7571175 11.391046 1.8052104 -1.7528240 1.00000 0.00000             
Pb    core -0.208336 9.4491565 3.5748984 1.75282400 1.00000 0.00000             
Pb    core 2.6765935 6.2471763 3.2446906 1.75282400 1.00000 0.00000             
Pb    core 2.9143193 9.9473132 0.6176860 1.75282400 1.00000 0.00000             
Pb    core -0.193317 6.0491991 0.3112588 1.75282400 1.00000 0.00000             
S     core 3.6543697 9.3301750 15.729771 -1.7528240 1.00000 0.00000             
S     core 3.6837329 5.8846702 11.995546 -1.7528240 1.00000 0.00000             
S     core 1.1906599 7.9740465 13.324755 -1.7528240 1.00000 0.00000             
Pb    core 3.1835735 6.7646640 15.050265 1.75282400 1.00000 0.00000             
Pb    core 3.7059149 8.8255137 11.820470 1.75282400 1.00000 0.00000             
Pb    core 0.9135304 5.0404586 12.676300 1.75282400 1.00000 0.00000             
S     core 3.2737942 3.1520186 9.0030774 -1.7528240 1.00000 0.00000             
S     core 0.3657533 -0.172994 8.5792899 -1.7528240 1.00000 0.00000             
S     core 2.6446513 0.2312279 5.9384153 -1.7528240 1.00000 0.00000             
S     core -0.186517 3.3775437 6.2255320 -1.7528240 1.00000 0.00000             
Pb    core -0.319352 2.8801714 9.2926764 1.75282400 1.00000 0.00000             
Pb    core 3.1376368 0.3925049 9.1835806 1.75282400 1.00000 0.00000             
Pb    core 2.8117826 3.2160240 6.1078320 1.75282400 1.00000 0.00000             
Pb    core -0.313213 0.6117632 6.0415872 1.75282400 1.00000 0.00000             
S     core 3.9422185 14.948350 9.1764843 -1.7528240 1.00000 0.00000             
S     core 1.5328487 11.011437 11.177426 -1.7528240 1.00000 0.00000             
S     core 3.1403872 11.911701 6.4953538 -1.7528240 1.00000 0.00000             
Pb    core 3.9476833 12.518386 10.432933 1.75282400 1.00000 0.00000             
Pb    core 3.2021035 14.823120 6.5315633 1.75282400 1.00000 0.00000             
Pb    core 1.3423554 10.849193 8.3810880 1.75282400 1.00000 0.00000             
S     core -2.427278 8.9345647 9.5753828 -1.7528240 1.00000 0.00000             
S     core -2.888682 6.4766042 6.6234332 -1.7528240 1.00000 0.00000             
Pb    core -2.830770 6.1706381 9.4430279 1.75282400 1.00000 0.00000             
Pb    core -2.686070 9.3186617 6.8379639 1.75282400 1.00000 0.00000             
S     core 15.118799 11.137418 4.9696379 -1.7528240 1.00000 0.00000             
S     core 11.493941 5.4160251 2.5801167 -1.7528240 1.00000 0.00000             
S     core 11.765975 7.9308909 -0.338170 -1.7528240 1.00000 0.00000             
Pb    core 11.791892 8.2857406 2.4091039 1.75282400 1.00000 0.00000             
Pb    core 15.138426 8.3935884 5.0765302 1.75282400 1.00000 0.00000             
Pb    core 11.531448 5.2364839 -0.278781 1.75282400 1.00000 0.00000             
S     core 12.426489 8.4201898 11.424239 -1.7528240 1.00000 0.00000             
Pb    core 12.320279 5.6548644 11.280999 1.75282400 1.00000 0.00000             
S     core 15.099328 3.0195883 7.9936405 -1.7528240 1.00000 0.00000             
S     core 11.753659 -0.161375 8.3452843 -1.7528240 1.00000 0.00000             
S     core 11.994325 2.5828418 5.3939423 -1.7528240 1.00000 0.00000             
Pb    core 12.298793 2.7001267 8.4377624 1.75282400 1.00000 0.00000             
Pb    core 14.841570 2.9382992 5.3377800 1.75282400 1.00000 0.00000             
Pb    core 11.441713 -0.274541 5.5653969 1.75282400 1.00000 0.00000             
S     core 12.983535 11.562934 8.7661864 -1.7528240 1.00000 0.00000             
Pb    core 12.426020 11.494150 4.4574996 1.75282400 1.00000 0.00000             
S     core 8.8205506 8.6186449 2.7812709 -1.7528240 1.00000 0.00000             
S     core 5.6448087 5.9947553 2.8775338 -1.7528240 1.00000 0.00000             
S     core 8.4842185 5.7239787 -0.209073 -1.7528240 1.00000 0.00000             
S     core 5.6597158 9.1758927 0.0455812 -1.7528240 1.00000 0.00000             
Pb    core 5.9385097 8.9356029 3.0414751 1.75282400 1.00000 0.00000             
Pb    core 8.6137677 5.6618984 2.7854884 1.75282400 1.00000 0.00000             
Pb    core 8.9206998 8.4980153 -0.022702 1.75282400 1.00000 0.00000             
Pb    core 5.5539295 6.2326845 -0.047093 1.75282400 1.00000 0.00000             
S     core 8.8663751 9.7268625 14.163804 -1.7528240 1.00000 0.00000             
S     core 6.4822010 6.2822719 14.915498 -1.7528240 1.00000 0.00000             
S     core 9.4796757 5.8465784 11.939821 -1.7528240 1.00000 0.00000             
S     core 6.6614847 8.7409905 11.738289 -1.7528240 1.00000 0.00000             
Pb    core 6.1578802 9.5230913 14.735426 1.75282400 1.00000 0.00000             
Pb    core 9.0683578 7.0756192 14.456588 1.75282400 1.00000 0.00000             
Pb    core 9.5931290 8.9733756 11.399857 1.75282400 1.00000 0.00000             
Pb    core 6.4896582 5.9381607 11.813491 1.75282400 1.00000 0.00000             
S     core 9.0707716 2.8965962 8.6685881 -1.7528240 1.00000 0.00000             
S     core 5.9764607 0.0878650 8.8930620 -1.7528240 1.00000 0.00000             
S     core 8.5468310 -0.295163 5.7859238 -1.7528240 1.00000 0.00000             
S     core 5.7858384 2.9731615 5.8410634 -1.7528240 1.00000 0.00000             
Pb    core 6.1534103 3.0270315 8.8208172 1.75282400 1.00000 0.00000             
Pb    core 8.9157843 -0.403441 8.7810906 1.75282400 1.00000 0.00000             
Pb    core 8.7946973 2.7418903 5.7584760 1.75282400 1.00000 0.00000             
Pb    core 5.6170025 0.0526794 5.9638850 1.75282400 1.00000 0.00000             
S     core 9.2379689 14.966200 7.6574160 -1.7528240 1.00000 0.00000             
S     core 6.5632140 12.009417 9.1490606 -1.7528240 1.00000 0.00000             
S     core 9.6328243 11.875158 5.3593370 -1.7528240 1.00000 0.00000             
S     core 5.9508837 14.768837 5.7673342 -1.7528240 1.00000 0.00000             
Pb    core 6.6641478 14.974744 8.5667462 1.75282400 1.00000 0.00000             
Pb    core 10.118360 12.428620 8.3959716 1.75282400 1.00000 0.00000             
Pb    core 8.7183716 14.704071 4.9882958 1.75282400 1.00000 0.00000             
Pb    core 6.1869741 11.882959 6.2070682 1.75282400 1.00000 0.00000             
S     core 3.4350350 8.9043833 9.0332348 -1.7528240 1.00000 0.00000             
S     core 0.1318878 5.9494182 9.8242143 -1.7528240 1.00000 0.00000             
S     core 2.9568033 6.0744390 6.1712672 -1.7528240 1.00000 0.00000             
S     core 0.2511769 9.1955472 6.4443316 -1.7528240 1.00000 0.00000             
Pb    core -0.151232 8.6760001 11.022155 1.75282400 1.00000 0.00000             
Pb    core 3.1598824 6.0123000 9.1584400 1.75282400 1.00000 0.00000             
Pb    core 3.2538530 8.9638650 6.1972884 1.75282400 1.00000 0.00000             
Pb    core 0.0060202 6.3097592 6.6648280 1.75282400 1.00000 0.00000             
S     core 15.423217 8.4895458 7.9229726 -1.7528240 1.00000 0.00000             
S     core 12.258047 5.7150715 8.3938285 -1.7528240 1.00000 0.00000             
S     core 14.945411 5.6454327 5.1452272 -1.7528240 1.00000 0.00000             
S     core 12.194583 8.6017098 5.2575088 -1.7528240 1.00000 0.00000             
Pb    core 12.450541 8.7127830 8.3610230 1.75282400 1.00000 0.00000             
Pb    core 15.235958 5.7394259 8.0286766 1.75282400 1.00000 0.00000             
Pb    core 15.435783 11.252477 7.6332273 1.75282400 1.00000 0.00000             
Pb    core 11.968428 5.6542534 5.4149510 1.75282400 1.00000 0.00000             
S     core 9.4688121 8.7243649 8.5342777 -1.7528240 1.00000 0.00000             
S     core 6.3422915 5.9011858 8.8830162 -1.7528240 1.00000 0.00000             
S     core 8.9704239 5.7024953 5.6807765 -1.7528240 1.00000 0.00000             
S     core 6.2160754 8.9113946 5.9824929 -1.7528240 1.00000 0.00000             
Pb    core 6.4552517 9.0070445 8.8767522 1.75282400 1.00000 0.00000             
Pb    core 9.2722365 5.8516144 8.5763887 1.75282400 1.00000 0.00000             
Pb    core 9.2133286 8.8870730 5.6623788 1.75282400 1.00000 0.00000             
Pb    core 6.0000000 5.9658850 5.9488280 1.75282400 1.00000 0.00000             
species   2
S      core   -1.752824                  
Pb     core    1.752824                  
buck     
S     core S     core  11413.0900     0.153000  129.1800      0.00 15.00
buck     
Pb    core Pb    core  11413.0900     0.153000  200.0000      0.00 15.00
buck     
S     core Pb    core  2845.45780     0.347536  0.000000      0.00 15.00
dump Results\PbS_COMP_CUBIC_06.gin                               
output frc Results\PbS_COMP_CUBIC_06.frc                               
