# 
# Keywords:
# 
conp opti  
# 
# Options:
# 
cartesian 
S     core -2.899945 -8.855408 -14.75654 -1.7528240 1.00000 0.00000             
Pb    core -5.867945 -8.855408 -14.75654 1.75282400 1.00000 0.00000             
S     core -2.899945 -14.79141 -8.820538 -1.7528240 1.00000 0.00000             
Pb    core -5.867945 -14.79141 -8.820538 1.75282400 1.00000 0.00000             
S     core -8.835945 -2.919408 -14.75654 -1.7528240 1.00000 0.00000             
Pb    core -8.835945 -5.887408 -14.75654 1.75282400 1.00000 0.00000             
S     core -8.835945 -8.855408 -8.820538 -1.7528240 1.00000 0.00000             
Pb    core -11.80395 -8.855408 -8.820538 1.75282400 1.00000 0.00000             
Pb    core -8.835945 -11.82341 -8.820538 1.75282400 1.00000 0.00000             
Pb    core -8.835945 -8.855408 -11.78854 1.75282400 1.00000 0.00000             
Pb    core -8.835945 -8.855408 23.827460 1.75282400 1.00000 0.00000             
S     core -8.835945 -14.79141 -2.884538 -1.7528240 1.00000 0.00000             
Pb    core -8.835945 -14.79141 17.891460 1.75282400 1.00000 0.00000             
Pb    core -8.835945 17.856590 -14.75654 1.75282400 1.00000 0.00000             
Pb    core -8.835945 23.792590 -8.820538 1.75282400 1.00000 0.00000             
S     core -14.77195 -2.919408 -8.820538 -1.7528240 1.00000 0.00000             
S     core -14.77195 -8.855408 -2.884538 -1.7528240 1.00000 0.00000             
Pb    core -14.77195 -8.855408 -5.852538 1.75282400 1.00000 0.00000             
Pb    core -14.77195 -8.855408 17.891460 1.75282400 1.00000 0.00000             
Pb    core -14.77195 17.856590 -8.820538 1.75282400 1.00000 0.00000             
Pb    core 17.876050 -14.79141 -8.820538 1.75282400 1.00000 0.00000             
Pb    core 23.812050 -8.855408 -8.820538 1.75282400 1.00000 0.00000             
S     core 3.0360550 -8.855408 -14.75654 -1.7528240 1.00000 0.00000             
S     core 0.0680546 -11.82341 -14.75654 -1.7528240 1.00000 0.00000             
Pb    core 0.0680546 -8.855408 -14.75654 1.75282400 1.00000 0.00000             
Pb    core 3.0360550 -11.82341 -14.75654 1.75282400 1.00000 0.00000             
Pb    core 3.0360550 -8.855408 -17.72454 1.75282400 1.00000 0.00000             
Pb    core 3.0360550 -8.855408 29.763460 1.75282400 1.00000 0.00000             
S     core 3.0360550 -14.79141 -8.820538 -1.7528240 1.00000 0.00000             
S     core 0.0680546 -14.79141 -11.78854 -1.7528240 1.00000 0.00000             
Pb    core 0.0680546 -14.79141 -8.820538 1.75282400 1.00000 0.00000             
Pb    core 3.0360550 -17.75941 -8.820538 1.75282400 1.00000 0.00000             
Pb    core 3.0360550 -14.79141 -11.78854 1.75282400 1.00000 0.00000             
S     core 0.0680546 -14.79141 23.827460 -1.7528240 1.00000 0.00000             
Pb    core 3.0360550 -14.79141 23.827460 1.75282400 1.00000 0.00000             
S     core 0.0680546 23.792590 -14.75654 -1.7528240 1.00000 0.00000             
Pb    core 3.0360550 23.792590 -14.75654 1.75282400 1.00000 0.00000             
Pb    core 3.0360550 29.728590 -8.820538 1.75282400 1.00000 0.00000             
S     core -2.899945 -2.919408 -14.75654 -1.7528240 1.00000 0.00000             
S     core -5.867945 -5.887408 -14.75654 -1.7528240 1.00000 0.00000             
S     core -2.899945 -5.887408 -17.72454 -1.7528240 1.00000 0.00000             
S     core -5.867945 -2.919408 -17.72454 -1.7528240 1.00000 0.00000             
Pb    core -5.867945 -2.919408 -14.75654 1.75282400 1.00000 0.00000             
Pb    core -2.899945 -5.887408 -14.75654 1.75282400 1.00000 0.00000             
Pb    core -2.899945 -2.919408 -17.72454 1.75282400 1.00000 0.00000             
S     core -2.899945 -5.887408 29.763460 -1.7528240 1.00000 0.00000             
S     core -5.867945 -2.919408 29.763460 -1.7528240 1.00000 0.00000             
Pb    core -2.899945 -2.919408 29.763460 1.75282400 1.00000 0.00000             
S     core -2.899945 -8.855408 -8.820538 -1.7528240 1.00000 0.00000             
S     core -5.867945 -11.82341 -8.820538 -1.7528240 1.00000 0.00000             
S     core -2.899945 -11.82341 -11.78854 -1.7528240 1.00000 0.00000             
S     core -5.867945 -8.855408 -11.78854 -1.7528240 1.00000 0.00000             
Pb    core -5.867945 -8.855408 -8.820538 1.75282400 1.00000 0.00000             
Pb    core -2.899945 -11.82341 -8.820538 1.75282400 1.00000 0.00000             
Pb    core -2.899945 -8.855408 -11.78854 1.75282400 1.00000 0.00000             
Pb    core -5.867945 -11.82341 -11.78854 1.75282400 1.00000 0.00000             
S     core -2.899945 -8.855408 26.795460 -1.7528240 1.00000 0.00000             
S     core -2.899945 -11.82341 23.827460 -1.7528240 1.00000 0.00000             
S     core -5.867945 -8.855408 23.827460 -1.7528240 1.00000 0.00000             
Pb    core -2.899945 -8.855408 23.827460 1.75282400 1.00000 0.00000             
S     core -2.899945 -14.79141 -2.884538 -1.7528240 1.00000 0.00000             
S     core -5.867945 -17.75941 -2.884538 -1.7528240 1.00000 0.00000             
S     core -2.899945 -17.75941 -5.852538 -1.7528240 1.00000 0.00000             
S     core -5.867945 -14.79141 -5.852538 -1.7528240 1.00000 0.00000             
Pb    core -5.867945 -14.79141 -2.884538 1.75282400 1.00000 0.00000             
Pb    core -2.899945 -17.75941 -2.884538 1.75282400 1.00000 0.00000             
Pb    core -2.899945 -14.79141 -5.852538 1.75282400 1.00000 0.00000             
S     core -2.899945 -14.79141 20.859460 -1.7528240 1.00000 0.00000             
S     core -2.899945 -17.75941 17.891460 -1.7528240 1.00000 0.00000             
S     core -5.867945 -14.79141 17.891460 -1.7528240 1.00000 0.00000             
Pb    core -5.867945 -14.79141 20.859460 1.75282400 1.00000 0.00000             
Pb    core -2.899945 -14.79141 17.891460 1.75282400 1.00000 0.00000             
S     core -2.899945 20.824590 -14.75654 -1.7528240 1.00000 0.00000             
S     core -5.867945 17.856590 -14.75654 -1.7528240 1.00000 0.00000             
S     core -2.899945 17.856590 -17.72454 -1.7528240 1.00000 0.00000             
Pb    core -5.867945 20.824590 -14.75654 1.75282400 1.00000 0.00000             
Pb    core -2.899945 17.856590 -14.75654 1.75282400 1.00000 0.00000             
S     core -2.899945 17.856590 29.763460 -1.7528240 1.00000 0.00000             
S     core -2.899945 26.760590 -8.820538 -1.7528240 1.00000 0.00000             
S     core -5.867945 23.792590 -8.820538 -1.7528240 1.00000 0.00000             
S     core -2.899945 23.792590 -11.78854 -1.7528240 1.00000 0.00000             
Pb    core -2.899945 23.792590 -8.820538 1.75282400 1.00000 0.00000             
Pb    core -5.867945 23.792590 -11.78854 1.75282400 1.00000 0.00000             
S     core -2.899945 23.792590 23.827460 -1.7528240 1.00000 0.00000             
Pb    core -5.867945 23.792590 23.827460 1.75282400 1.00000 0.00000             
S     core -5.867945 29.728590 -2.884538 -1.7528240 1.00000 0.00000             
S     core -2.899945 29.728590 -5.852538 -1.7528240 1.00000 0.00000             
Pb    core -2.899945 29.728590 -2.884538 1.75282400 1.00000 0.00000             
S     core -2.899945 29.728590 17.891460 -1.7528240 1.00000 0.00000             
S     core -8.835945 3.0165920 -14.75654 -1.7528240 1.00000 0.00000             
S     core -11.80395 0.0485923 -14.75654 -1.7528240 1.00000 0.00000             
Pb    core -11.80395 3.0165920 -14.75654 1.75282400 1.00000 0.00000             
Pb    core -8.835945 0.0485923 -14.75654 1.75282400 1.00000 0.00000             
Pb    core -8.835945 3.0165920 -17.72454 1.75282400 1.00000 0.00000             
S     core -8.835945 -2.919408 -8.820538 -1.7528240 1.00000 0.00000             
S     core -11.80395 -5.887408 -8.820538 -1.7528240 1.00000 0.00000             
S     core -8.835945 -5.887408 -11.78854 -1.7528240 1.00000 0.00000             
S     core -11.80395 -2.919408 -11.78854 -1.7528240 1.00000 0.00000             
Pb    core -11.80395 -2.919408 -8.820538 1.75282400 1.00000 0.00000             
Pb    core -8.835945 -5.887408 -8.820538 1.75282400 1.00000 0.00000             
Pb    core -8.835945 -2.919408 -11.78854 1.75282400 1.00000 0.00000             
Pb    core -11.80395 -5.887408 -11.78854 1.75282400 1.00000 0.00000             
S     core -8.835945 -2.919408 26.795460 -1.7528240 1.00000 0.00000             
S     core -8.835945 -5.887408 23.827460 -1.7528240 1.00000 0.00000             
S     core -11.80395 -2.919408 23.827460 -1.7528240 1.00000 0.00000             
Pb    core -8.835945 -5.887408 26.795460 1.75282400 1.00000 0.00000             
Pb    core -8.835945 -2.919408 23.827460 1.75282400 1.00000 0.00000             
Pb    core -11.80395 -5.887408 23.827460 1.75282400 1.00000 0.00000             
S     core -8.835945 -8.855408 -2.884538 -1.7528240 1.00000 0.00000             
S     core -11.80395 -11.82341 -2.884538 -1.7528240 1.00000 0.00000             
S     core -8.835945 -11.82341 -5.852538 -1.7528240 1.00000 0.00000             
S     core -11.80395 -8.855408 -5.852538 -1.7528240 1.00000 0.00000             
Pb    core -11.80395 -8.855408 -2.884538 1.75282400 1.00000 0.00000             
Pb    core -8.835945 -11.82341 -2.884538 1.75282400 1.00000 0.00000             
Pb    core -8.835945 -8.855408 -5.852538 1.75282400 1.00000 0.00000             
S     core -8.835945 -8.855408 20.859460 -1.7528240 1.00000 0.00000             
S     core -8.835945 -11.82341 17.891460 -1.7528240 1.00000 0.00000             
S     core -11.80395 -8.855408 17.891460 -1.7528240 1.00000 0.00000             
Pb    core -11.80395 -8.855408 20.859460 1.75282400 1.00000 0.00000             
Pb    core -8.835945 -11.82341 20.859460 1.75282400 1.00000 0.00000             
Pb    core -8.835945 -8.855408 17.891460 1.75282400 1.00000 0.00000             
Pb    core -11.80395 -11.82341 17.891460 1.75282400 1.00000 0.00000             
S     core -8.835945 -14.79141 3.0514620 -1.7528240 1.00000 0.00000             
S     core -11.80395 -14.79141 0.0834623 -1.7528240 1.00000 0.00000             
Pb    core -11.80395 -14.79141 3.0514620 1.75282400 1.00000 0.00000             
Pb    core -8.835945 -17.75941 3.0514620 1.75282400 1.00000 0.00000             
Pb    core -8.835945 -14.79141 0.0834623 1.75282400 1.00000 0.00000             
S     core -8.835945 -14.79141 14.923460 -1.7528240 1.00000 0.00000             
S     core -11.80395 -14.79141 11.955460 -1.7528240 1.00000 0.00000             
Pb    core -8.835945 -14.79141 11.955460 1.75282400 1.00000 0.00000             
S     core -8.835945 14.888590 -14.75654 -1.7528240 1.00000 0.00000             
S     core -11.80395 11.920590 -14.75654 -1.7528240 1.00000 0.00000             
Pb    core -8.835945 11.920590 -14.75654 1.75282400 1.00000 0.00000             
S     core -8.835945 20.824590 -8.820538 -1.7528240 1.00000 0.00000             
S     core -11.80395 17.856590 -8.820538 -1.7528240 1.00000 0.00000             
S     core -8.835945 17.856590 -11.78854 -1.7528240 1.00000 0.00000             
Pb    core -11.80395 20.824590 -8.820538 1.75282400 1.00000 0.00000             
Pb    core -8.835945 17.856590 -8.820538 1.75282400 1.00000 0.00000             
Pb    core -8.835945 20.824590 -11.78854 1.75282400 1.00000 0.00000             
Pb    core -11.80395 17.856590 -11.78854 1.75282400 1.00000 0.00000             
S     core -8.835945 17.856590 23.827460 -1.7528240 1.00000 0.00000             
Pb    core -8.835945 20.824590 23.827460 1.75282400 1.00000 0.00000             
S     core -8.835945 26.760590 -2.884538 -1.7528240 1.00000 0.00000             
S     core -11.80395 23.792590 -2.884538 -1.7528240 1.00000 0.00000             
S     core -8.835945 23.792590 -5.852538 -1.7528240 1.00000 0.00000             
Pb    core -8.835945 23.792590 -2.884538 1.75282400 1.00000 0.00000             
Pb    core -8.835945 26.760590 -5.852538 1.75282400 1.00000 0.00000             
Pb    core -11.80395 23.792590 -5.852538 1.75282400 1.00000 0.00000             
S     core -8.835945 23.792590 17.891460 -1.7528240 1.00000 0.00000             
Pb    core -8.835945 23.792590 20.859460 1.75282400 1.00000 0.00000             
Pb    core -8.835945 26.760590 17.891460 1.75282400 1.00000 0.00000             
Pb    core -8.835945 29.728590 3.0514620 1.75282400 1.00000 0.00000             
S     core -14.77195 3.0165920 -8.820538 -1.7528240 1.00000 0.00000             
S     core -14.77195 0.0485923 -11.78854 -1.7528240 1.00000 0.00000             
Pb    core -17.73995 3.0165920 -8.820538 1.75282400 1.00000 0.00000             
Pb    core -14.77195 0.0485923 -8.820538 1.75282400 1.00000 0.00000             
Pb    core -14.77195 3.0165920 -11.78854 1.75282400 1.00000 0.00000             
S     core -14.77195 0.0485923 23.827460 -1.7528240 1.00000 0.00000             
Pb    core -14.77195 3.0165920 23.827460 1.75282400 1.00000 0.00000             
S     core -14.77195 -2.919408 -2.884538 -1.7528240 1.00000 0.00000             
S     core -17.73995 -5.887408 -2.884538 -1.7528240 1.00000 0.00000             
S     core -14.77195 -5.887408 -5.852538 -1.7528240 1.00000 0.00000             
S     core -17.73995 -2.919408 -5.852538 -1.7528240 1.00000 0.00000             
Pb    core -17.73995 -2.919408 -2.884538 1.75282400 1.00000 0.00000             
Pb    core -14.77195 -5.887408 -2.884538 1.75282400 1.00000 0.00000             
Pb    core -14.77195 -2.919408 -5.852538 1.75282400 1.00000 0.00000             
S     core -14.77195 -2.919408 20.859460 -1.7528240 1.00000 0.00000             
S     core -14.77195 -5.887408 17.891460 -1.7528240 1.00000 0.00000             
S     core -17.73995 -2.919408 17.891460 -1.7528240 1.00000 0.00000             
Pb    core -14.77195 -2.919408 17.891460 1.75282400 1.00000 0.00000             
S     core -14.77195 -8.855408 3.0514620 -1.7528240 1.00000 0.00000             
S     core -14.77195 -11.82341 0.0834623 -1.7528240 1.00000 0.00000             
Pb    core -17.73995 -8.855408 3.0514620 1.75282400 1.00000 0.00000             
Pb    core -14.77195 -11.82341 3.0514620 1.75282400 1.00000 0.00000             
Pb    core -14.77195 -8.855408 0.0834623 1.75282400 1.00000 0.00000             
S     core -14.77195 -8.855408 14.923460 -1.7528240 1.00000 0.00000             
S     core -14.77195 -11.82341 11.955460 -1.7528240 1.00000 0.00000             
Pb    core -14.77195 -8.855408 11.955460 1.75282400 1.00000 0.00000             
S     core -14.77195 14.888590 -8.820538 -1.7528240 1.00000 0.00000             
S     core -14.77195 11.920590 -11.78854 -1.7528240 1.00000 0.00000             
Pb    core -14.77195 11.920590 -8.820538 1.75282400 1.00000 0.00000             
S     core -14.77195 11.920590 23.827460 -1.7528240 1.00000 0.00000             
S     core -14.77195 20.824590 -2.884538 -1.7528240 1.00000 0.00000             
S     core -17.73995 17.856590 -2.884538 -1.7528240 1.00000 0.00000             
S     core -14.77195 17.856590 -5.852538 -1.7528240 1.00000 0.00000             
Pb    core -14.77195 17.856590 -2.884538 1.75282400 1.00000 0.00000             
Pb    core -14.77195 20.824590 -5.852538 1.75282400 1.00000 0.00000             
S     core -14.77195 17.856590 17.891460 -1.7528240 1.00000 0.00000             
Pb    core -14.77195 17.856590 20.859460 1.75282400 1.00000 0.00000             
S     core -14.77195 23.792590 0.0834623 -1.7528240 1.00000 0.00000             
Pb    core -14.77195 23.792590 3.0514620 1.75282400 1.00000 0.00000             
S     core -14.77195 23.792590 11.955460 -1.7528240 1.00000 0.00000             
S     core 14.908050 -8.855408 -14.75654 -1.7528240 1.00000 0.00000             
S     core 11.940050 -11.82341 -14.75654 -1.7528240 1.00000 0.00000             
Pb    core 11.940050 -8.855408 -14.75654 1.75282400 1.00000 0.00000             
S     core 14.908050 -14.79141 -8.820538 -1.7528240 1.00000 0.00000             
S     core 11.940050 -14.79141 -11.78854 -1.7528240 1.00000 0.00000             
Pb    core 11.940050 -14.79141 -8.820538 1.75282400 1.00000 0.00000             
S     core 11.940050 -14.79141 23.827460 -1.7528240 1.00000 0.00000             
S     core 11.940050 23.792590 -14.75654 -1.7528240 1.00000 0.00000             
S     core 20.844050 -2.919408 -14.75654 -1.7528240 1.00000 0.00000             
S     core 17.876050 -5.887408 -14.75654 -1.7528240 1.00000 0.00000             
S     core 17.876050 -2.919408 -17.72454 -1.7528240 1.00000 0.00000             
Pb    core 17.876050 -2.919408 -14.75654 1.75282400 1.00000 0.00000             
Pb    core 20.844050 -5.887408 -14.75654 1.75282400 1.00000 0.00000             
S     core 17.876050 -2.919408 29.763460 -1.7528240 1.00000 0.00000             
S     core 20.844050 -8.855408 -8.820538 -1.7528240 1.00000 0.00000             
S     core 17.876050 -11.82341 -8.820538 -1.7528240 1.00000 0.00000             
S     core 17.876050 -8.855408 -11.78854 -1.7528240 1.00000 0.00000             
Pb    core 17.876050 -8.855408 -8.820538 1.75282400 1.00000 0.00000             
Pb    core 20.844050 -11.82341 -8.820538 1.75282400 1.00000 0.00000             
Pb    core 20.844050 -8.855408 -11.78854 1.75282400 1.00000 0.00000             
S     core 17.876050 -8.855408 23.827460 -1.7528240 1.00000 0.00000             
Pb    core 17.876050 -8.855408 26.795460 1.75282400 1.00000 0.00000             
Pb    core 20.844050 -8.855408 23.827460 1.75282400 1.00000 0.00000             
Pb    core 17.876050 -11.82341 23.827460 1.75282400 1.00000 0.00000             
S     core 20.844050 -14.79141 -2.884538 -1.7528240 1.00000 0.00000             
S     core 17.876050 -17.75941 -2.884538 -1.7528240 1.00000 0.00000             
S     core 17.876050 -14.79141 -5.852538 -1.7528240 1.00000 0.00000             
Pb    core 17.876050 -14.79141 -2.884538 1.75282400 1.00000 0.00000             
S     core 17.876050 -14.79141 17.891460 -1.7528240 1.00000 0.00000             
Pb    core 17.876050 -14.79141 20.859460 1.75282400 1.00000 0.00000             
S     core 17.876050 17.856590 -14.75654 -1.7528240 1.00000 0.00000             
Pb    core 20.844050 17.856590 -14.75654 1.75282400 1.00000 0.00000             
S     core 17.876050 23.792590 -8.820538 -1.7528240 1.00000 0.00000             
Pb    core 17.876050 26.760590 -8.820538 1.75282400 1.00000 0.00000             
Pb    core 20.844050 23.792590 -8.820538 1.75282400 1.00000 0.00000             
Pb    core 17.876050 23.792590 -11.78854 1.75282400 1.00000 0.00000             
Pb    core 17.876050 23.792590 23.827460 1.75282400 1.00000 0.00000             
S     core 17.876050 29.728590 -2.884538 -1.7528240 1.00000 0.00000             
S     core 23.812050 0.0485923 -14.75654 -1.7528240 1.00000 0.00000             
Pb    core 23.812050 3.0165920 -14.75654 1.75282400 1.00000 0.00000             
S     core 26.780050 -2.919408 -8.820538 -1.7528240 1.00000 0.00000             
S     core 23.812050 -5.887408 -8.820538 -1.7528240 1.00000 0.00000             
S     core 23.812050 -2.919408 -11.78854 -1.7528240 1.00000 0.00000             
Pb    core 23.812050 -2.919408 -8.820538 1.75282400 1.00000 0.00000             
Pb    core 26.780050 -5.887408 -8.820538 1.75282400 1.00000 0.00000             
Pb    core 23.812050 -5.887408 -11.78854 1.75282400 1.00000 0.00000             
S     core 23.812050 -2.919408 23.827460 -1.7528240 1.00000 0.00000             
Pb    core 23.812050 -5.887408 23.827460 1.75282400 1.00000 0.00000             
S     core 26.780050 -8.855408 -2.884538 -1.7528240 1.00000 0.00000             
S     core 23.812050 -11.82341 -2.884538 -1.7528240 1.00000 0.00000             
S     core 23.812050 -8.855408 -5.852538 -1.7528240 1.00000 0.00000             
Pb    core 23.812050 -8.855408 -2.884538 1.75282400 1.00000 0.00000             
S     core 23.812050 -8.855408 17.891460 -1.7528240 1.00000 0.00000             
Pb    core 23.812050 -8.855408 20.859460 1.75282400 1.00000 0.00000             
Pb    core 26.780050 -8.855408 17.891460 1.75282400 1.00000 0.00000             
Pb    core 23.812050 -11.82341 17.891460 1.75282400 1.00000 0.00000             
S     core 23.812050 -14.79141 0.0834623 -1.7528240 1.00000 0.00000             
Pb    core 23.812050 -14.79141 3.0514620 1.75282400 1.00000 0.00000             
S     core 23.812050 -14.79141 11.955460 -1.7528240 1.00000 0.00000             
S     core 23.812050 11.920590 -14.75654 -1.7528240 1.00000 0.00000             
S     core 23.812050 17.856590 -8.820538 -1.7528240 1.00000 0.00000             
Pb    core 23.812050 20.824590 -8.820538 1.75282400 1.00000 0.00000             
Pb    core 26.780050 17.856590 -8.820538 1.75282400 1.00000 0.00000             
Pb    core 23.812050 17.856590 -11.78854 1.75282400 1.00000 0.00000             
Pb    core 23.812050 17.856590 23.827460 1.75282400 1.00000 0.00000             
S     core 23.812050 23.792590 -2.884538 -1.7528240 1.00000 0.00000             
Pb    core 23.812050 23.792590 -5.852538 1.75282400 1.00000 0.00000             
Pb    core 23.812050 23.792590 17.891460 1.75282400 1.00000 0.00000             
Pb    core 29.748050 3.0165920 -8.820538 1.75282400 1.00000 0.00000             
S     core 29.748050 -5.887408 -2.884538 -1.7528240 1.00000 0.00000             
S     core 29.748050 -2.919408 -5.852538 -1.7528240 1.00000 0.00000             
Pb    core 29.748050 -2.919408 -2.884538 1.75282400 1.00000 0.00000             
S     core 29.748050 -2.919408 17.891460 -1.7528240 1.00000 0.00000             
Pb    core 29.748050 -8.855408 3.0514620 1.75282400 1.00000 0.00000             
S     core 29.748050 17.856590 -2.884538 -1.7528240 1.00000 0.00000             
Pb    core 6.0040550 -2.919408 -20.69254 1.75282400 1.00000 0.00000             
S     core 8.9720550 -8.855408 -14.75654 -1.7528240 1.00000 0.00000             
S     core 6.0040550 -11.82341 -14.75654 -1.7528240 1.00000 0.00000             
S     core 6.0040550 -8.855408 -17.72454 -1.7528240 1.00000 0.00000             
Pb    core 6.0040550 -8.855408 -14.75654 1.75282400 1.00000 0.00000             
Pb    core 8.9720550 -11.82341 -14.75654 1.75282400 1.00000 0.00000             
Pb    core 8.9720550 -8.855408 -17.72454 1.75282400 1.00000 0.00000             
S     core 6.0040550 -8.855408 29.763460 -1.7528240 1.00000 0.00000             
Pb    core 8.9720550 -8.855408 29.763460 1.75282400 1.00000 0.00000             
S     core 8.9720550 -14.79141 -8.820538 -1.7528240 1.00000 0.00000             
S     core 6.0040550 -17.75941 -8.820538 -1.7528240 1.00000 0.00000             
S     core 6.0040550 -14.79141 -11.78854 -1.7528240 1.00000 0.00000             
Pb    core 6.0040550 -14.79141 -8.820538 1.75282400 1.00000 0.00000             
Pb    core 8.9720550 -14.79141 -11.78854 1.75282400 1.00000 0.00000             
S     core 6.0040550 -14.79141 23.827460 -1.7528240 1.00000 0.00000             
Pb    core 8.9720550 -14.79141 23.827460 1.75282400 1.00000 0.00000             
Pb    core 6.0040550 -20.72741 -2.884538 1.75282400 1.00000 0.00000             
S     core 6.0040550 23.792590 -14.75654 -1.7528240 1.00000 0.00000             
Pb    core 8.9720550 23.792590 -14.75654 1.75282400 1.00000 0.00000             
S     core 6.0040550 29.728590 -8.820538 -1.7528240 1.00000 0.00000             
S     core 3.0360550 3.0165920 -20.69254 -1.7528240 1.00000 0.00000             
S     core 0.0680546 0.0485923 -20.69254 -1.7528240 1.00000 0.00000             
Pb    core 0.0680546 3.0165920 -20.69254 1.75282400 1.00000 0.00000             
Pb    core 3.0360550 0.0485923 -20.69254 1.75282400 1.00000 0.00000             
S     core 3.0360550 -2.919408 -14.75654 -1.7528240 1.00000 0.00000             
S     core 0.0680546 -5.887408 -14.75654 -1.7528240 1.00000 0.00000             
S     core 3.0360550 -5.887408 -17.72454 -1.7528240 1.00000 0.00000             
S     core 0.0680546 -2.919408 -17.72454 -1.7528240 1.00000 0.00000             
Pb    core 0.0680546 -2.919408 -14.75654 1.75282400 1.00000 0.00000             
Pb    core 3.0360550 -5.887408 -14.75654 1.75282400 1.00000 0.00000             
Pb    core 3.0360550 -2.919408 -17.72454 1.75282400 1.00000 0.00000             
Pb    core 0.0680546 -5.887408 -17.72454 1.75282400 1.00000 0.00000             
S     core 3.0360550 -5.887408 29.763460 -1.7528240 1.00000 0.00000             
S     core 0.0680546 -2.919408 29.763460 -1.7528240 1.00000 0.00000             
Pb    core 3.0360550 -2.919408 29.763460 1.75282400 1.00000 0.00000             
Pb    core 0.0680546 -5.887408 29.763460 1.75282400 1.00000 0.00000             
S     core 3.0360550 -8.855408 -8.820538 -1.7528240 1.00000 0.00000             
S     core 0.0680546 -11.82341 -8.820538 -1.7528240 1.00000 0.00000             
S     core 3.0360550 -11.82341 -11.78854 -1.7528240 1.00000 0.00000             
S     core 0.0680546 -8.855408 -11.78854 -1.7528240 1.00000 0.00000             
Pb    core 0.0680546 -8.855408 -8.820538 1.75282400 1.00000 0.00000             
Pb    core 3.0360550 -11.82341 -8.820538 1.75282400 1.00000 0.00000             
Pb    core 3.0360550 -8.855408 -11.78854 1.75282400 1.00000 0.00000             
Pb    core 0.0680546 -11.82341 -11.78854 1.75282400 1.00000 0.00000             
S     core 3.0360550 -8.855408 26.795460 -1.7528240 1.00000 0.00000             
S     core 0.0680546 -11.82341 26.795460 -1.7528240 1.00000 0.00000             
S     core 3.0360550 -11.82341 23.827460 -1.7528240 1.00000 0.00000             
S     core 0.0680546 -8.855408 23.827460 -1.7528240 1.00000 0.00000             
Pb    core 0.0680546 -8.855408 26.795460 1.75282400 1.00000 0.00000             
Pb    core 3.0360550 -11.82341 26.795460 1.75282400 1.00000 0.00000             
Pb    core 3.0360550 -8.855408 23.827460 1.75282400 1.00000 0.00000             
Pb    core 0.0680546 -11.82341 23.827460 1.75282400 1.00000 0.00000             
S     core 3.0360550 -14.79141 -2.884538 -1.7528240 1.00000 0.00000             
S     core 0.0680546 -17.75941 -2.884538 -1.7528240 1.00000 0.00000             
S     core 3.0360550 -17.75941 -5.852538 -1.7528240 1.00000 0.00000             
S     core 0.0680546 -14.79141 -5.852538 -1.7528240 1.00000 0.00000             
Pb    core 0.0680546 -14.79141 -2.884538 1.75282400 1.00000 0.00000             
Pb    core 3.0360550 -17.75941 -2.884538 1.75282400 1.00000 0.00000             
Pb    core 3.0360550 -14.79141 -5.852538 1.75282400 1.00000 0.00000             
Pb    core 0.0680546 -17.75941 -5.852538 1.75282400 1.00000 0.00000             
S     core 3.0360550 -14.79141 20.859460 -1.7528240 1.00000 0.00000             
S     core 3.0360550 -17.75941 17.891460 -1.7528240 1.00000 0.00000             
S     core 0.0680546 -14.79141 17.891460 -1.7528240 1.00000 0.00000             
Pb    core 0.0680546 -14.79141 20.859460 1.75282400 1.00000 0.00000             
Pb    core 3.0360550 -14.79141 17.891460 1.75282400 1.00000 0.00000             
Pb    core 0.0680546 -17.75941 17.891460 1.75282400 1.00000 0.00000             
S     core 3.0360550 -20.72741 3.0514620 -1.7528240 1.00000 0.00000             
S     core 0.0680546 -20.72741 0.0834623 -1.7528240 1.00000 0.00000             
Pb    core 0.0680546 -20.72741 3.0514620 1.75282400 1.00000 0.00000             
Pb    core 3.0360550 -20.72741 0.0834623 1.75282400 1.00000 0.00000             
S     core 0.0680546 -20.72741 11.955460 -1.7528240 1.00000 0.00000             
Pb    core 3.0360550 -20.72741 11.955460 1.75282400 1.00000 0.00000             
S     core 0.0680546 11.920590 -20.69254 -1.7528240 1.00000 0.00000             
Pb    core 3.0360550 11.920590 -20.69254 1.75282400 1.00000 0.00000             
S     core 3.0360550 20.824590 -14.75654 -1.7528240 1.00000 0.00000             
S     core 0.0680546 17.856590 -14.75654 -1.7528240 1.00000 0.00000             
S     core 3.0360550 17.856590 -17.72454 -1.7528240 1.00000 0.00000             
Pb    core 0.0680546 20.824590 -14.75654 1.75282400 1.00000 0.00000             
Pb    core 3.0360550 17.856590 -14.75654 1.75282400 1.00000 0.00000             
Pb    core 3.0360550 20.824590 -17.72454 1.75282400 1.00000 0.00000             
Pb    core 0.0680546 17.856590 -17.72454 1.75282400 1.00000 0.00000             
S     core 3.0360550 17.856590 29.763460 -1.7528240 1.00000 0.00000             
Pb    core 3.0360550 20.824590 29.763460 1.75282400 1.00000 0.00000             
Pb    core 0.0680546 17.856590 29.763460 1.75282400 1.00000 0.00000             
S     core 3.0360550 26.760590 -8.820538 -1.7528240 1.00000 0.00000             
S     core 0.0680546 23.792590 -8.820538 -1.7528240 1.00000 0.00000             
S     core 3.0360550 23.792590 -11.78854 -1.7528240 1.00000 0.00000             
S     core 0.0680546 26.760590 -11.78854 -1.7528240 1.00000 0.00000             
Pb    core 0.0680546 26.760590 -8.820538 1.75282400 1.00000 0.00000             
Pb    core 3.0360550 23.792590 -8.820538 1.75282400 1.00000 0.00000             
Pb    core 3.0360550 26.760590 -11.78854 1.75282400 1.00000 0.00000             
Pb    core 0.0680546 23.792590 -11.78854 1.75282400 1.00000 0.00000             
S     core 0.0680546 23.792590 26.795460 -1.7528240 1.00000 0.00000             
S     core 3.0360550 23.792590 23.827460 -1.7528240 1.00000 0.00000             
S     core 0.0680546 26.760590 23.827460 -1.7528240 1.00000 0.00000             
Pb    core 3.0360550 23.792590 26.795460 1.75282400 1.00000 0.00000             
Pb    core 3.0360550 26.760590 23.827460 1.75282400 1.00000 0.00000             
Pb    core 0.0680546 23.792590 23.827460 1.75282400 1.00000 0.00000             
S     core 0.0680546 29.728590 -2.884538 -1.7528240 1.00000 0.00000             
S     core 3.0360550 29.728590 -5.852538 -1.7528240 1.00000 0.00000             
Pb    core 3.0360550 29.728590 -2.884538 1.75282400 1.00000 0.00000             
Pb    core 0.0680546 29.728590 -5.852538 1.75282400 1.00000 0.00000             