# 
# Keywords:
# 
conp opti  
# 
# Options:
# 
cartesian 
S     core 1.8897958 1.9171393 -4.561149 -1.7528240 1.00000 0.00000             
Pb    core 1.8956345 1.9229780 16.525652 1.75282400 1.00000 0.00000             
S     core 1.8897958 -4.533806 1.8897958 -1.7528240 1.00000 0.00000             
Pb    core 1.8956345 -4.525652 10.077021 1.75282400 1.00000 0.00000             
Pb    core 1.8956345 10.104365 -4.552996 1.75282400 1.00000 0.00000             
S     core 1.8897958 10.110204 16.533806 -1.7528240 1.00000 0.00000             
Pb    core 1.8956345 16.552996 1.8956345 1.75282400 1.00000 0.00000             
S     core 1.8897958 16.561149 10.082860 -1.7528240 1.00000 0.00000             
S     core -4.561149 1.9171393 1.8897958 -1.7528240 1.00000 0.00000             
Pb    core -4.552996 1.9229780 10.077021 1.75282400 1.00000 0.00000             
Pb    core -4.552996 10.104365 1.8956345 1.75282400 1.00000 0.00000             
S     core -4.561149 10.110204 10.082860 -1.7528240 1.00000 0.00000             
Pb    core 10.077021 1.9229780 -4.552996 1.75282400 1.00000 0.00000             
S     core 10.082860 1.9171393 16.533806 -1.7528240 1.00000 0.00000             
Pb    core 10.077021 -4.525652 1.8956345 1.75282400 1.00000 0.00000             
S     core 10.082860 -4.533806 10.082860 -1.7528240 1.00000 0.00000             
S     core 10.082860 10.110204 -4.561149 -1.7528240 1.00000 0.00000             
Pb    core 10.077021 10.104365 16.525652 1.75282400 1.00000 0.00000             
S     core 10.082860 16.561149 1.8897958 -1.7528240 1.00000 0.00000             
Pb    core 10.077021 16.552996 10.077021 1.75282400 1.00000 0.00000             
Pb    core 16.525652 1.9229780 1.8956345 1.75282400 1.00000 0.00000             
S     core 16.533806 1.9171393 10.082860 -1.7528240 1.00000 0.00000             
S     core 16.533806 10.110204 1.8897958 -1.7528240 1.00000 0.00000             
Pb    core 16.525652 10.104365 10.077021 1.75282400 1.00000 0.00000             
S     core 7.3883709 1.7477699 -4.525481 -1.7528240 1.00000 0.00000             
Pb    core 4.5807124 1.7522473 -4.520870 1.75282400 1.00000 0.00000             
S     core 4.5842855 1.7477699 16.498138 -1.7528240 1.00000 0.00000             
Pb    core 7.3919440 1.7522473 16.493526 1.75282400 1.00000 0.00000             
S     core 7.3883709 -4.498138 1.7204263 -1.7528240 1.00000 0.00000             
Pb    core 4.5807124 -4.493526 1.7249037 1.75282400 1.00000 0.00000             
S     core 4.5842855 -4.498138 10.252230 -1.7528240 1.00000 0.00000             
Pb    core 7.3919440 -4.493526 10.247752 1.75282400 1.00000 0.00000             
S     core 4.5842855 10.279573 -4.525481 -1.7528240 1.00000 0.00000             
Pb    core 7.3919440 10.275096 -4.520870 1.75282400 1.00000 0.00000             
S     core 7.3883709 10.279573 16.498138 -1.7528240 1.00000 0.00000             
Pb    core 4.5807124 10.275096 16.493526 1.75282400 1.00000 0.00000             
S     core 4.5842855 16.525481 1.7204263 -1.7528240 1.00000 0.00000             
Pb    core 7.3919440 16.520870 1.7249037 1.75282400 1.00000 0.00000             
S     core 7.3883709 16.525481 10.252230 -1.7528240 1.00000 0.00000             
Pb    core 4.5807124 16.520870 10.247752 1.75282400 1.00000 0.00000             
S     core 1.7204263 7.4157144 -4.525481 -1.7528240 1.00000 0.00000             
Pb    core 1.7249037 4.6080559 -4.520870 1.75282400 1.00000 0.00000             
S     core 1.7204263 4.6116290 16.498138 -1.7528240 1.00000 0.00000             
Pb    core 1.7249037 7.4192875 16.493526 1.75282400 1.00000 0.00000             
S     core 1.5343193 1.5616629 1.5343193 -1.7528240 1.00000 0.00000             
S     core -1.339891 -1.312548 1.6938291 -1.7528240 1.00000 0.00000             
S     core 1.6938291 -1.312548 -1.339891 -1.7528240 1.00000 0.00000             
S     core -1.339891 1.7211726 -1.339891 -1.7528240 1.00000 0.00000             
Pb    core -1.739394 1.5413473 1.5140038 1.75282400 1.00000 0.00000             
Pb    core 1.5140038 -1.712051 1.5140038 1.75282400 1.00000 0.00000             
Pb    core 1.5140038 1.5413473 -1.739394 1.75282400 1.00000 0.00000             
Pb    core -1.095198 -1.067855 -1.095198 1.75282400 1.00000 0.00000             
S     core 1.5174116 1.5447551 13.706693 -1.7528240 1.00000 0.00000             
S     core -1.101355 -1.074012 13.074012 -1.7528240 1.00000 0.00000             
S     core 1.5174116 -1.706693 10.455244 -1.7528240 1.00000 0.00000             
S     core -1.734037 1.5447551 10.455244 -1.7528240 1.00000 0.00000             
Pb    core -1.334604 1.7205539 13.307261 1.75282400 1.00000 0.00000             
Pb    core 1.6932104 -1.307261 13.307261 1.75282400 1.00000 0.00000             
Pb    core 1.5369326 1.5642761 10.435723 1.75282400 1.00000 0.00000             
Pb    core -1.334604 -1.307261 10.279446 1.75282400 1.00000 0.00000             
S     core 1.7204263 -4.498138 7.3883709 -1.7528240 1.00000 0.00000             
Pb    core 1.7249037 -4.493526 4.5807124 1.75282400 1.00000 0.00000             
S     core 1.5174116 13.734037 1.5174116 -1.7528240 1.00000 0.00000             
S     core -1.734037 10.482588 1.5174116 -1.7528240 1.00000 0.00000             
S     core 1.5174116 10.482588 -1.734037 -1.7528240 1.00000 0.00000             
S     core -1.101355 13.101355 -1.101355 -1.7528240 1.00000 0.00000             
Pb    core -1.334604 13.334604 1.6932104 1.75282400 1.00000 0.00000             
Pb    core 1.5369326 10.463067 1.5369326 1.75282400 1.00000 0.00000             
Pb    core 1.6932104 13.334604 -1.334604 1.75282400 1.00000 0.00000             
Pb    core -1.334604 10.306789 -1.334604 1.75282400 1.00000 0.00000             
S     core 1.6938291 13.339891 13.312548 -1.7528240 1.00000 0.00000             
S     core -1.339891 10.306170 13.312548 -1.7528240 1.00000 0.00000             
S     core 1.5343193 10.465680 10.438337 -1.7528240 1.00000 0.00000             
S     core -1.339891 13.339891 10.278827 -1.7528240 1.00000 0.00000             
Pb    core -1.095198 13.095198 13.067855 1.75282400 1.00000 0.00000             
Pb    core 1.5140038 10.485996 13.712051 1.75282400 1.00000 0.00000             
Pb    core 1.5140038 13.739394 10.458652 1.75282400 1.00000 0.00000             
Pb    core -1.739394 10.485996 10.458652 1.75282400 1.00000 0.00000             
S     core 1.7204263 16.525481 4.5842855 -1.7528240 1.00000 0.00000             
Pb    core 1.7249037 16.520870 7.3919440 1.75282400 1.00000 0.00000             
S     core -4.525481 7.4157144 1.7204263 -1.7528240 1.00000 0.00000             
Pb    core -4.520870 4.6080559 1.7249037 1.75282400 1.00000 0.00000             
S     core -4.525481 4.6116290 10.252230 -1.7528240 1.00000 0.00000             
Pb    core -4.520870 7.4192875 10.247752 1.75282400 1.00000 0.00000             
S     core -4.525481 1.7477699 7.3883709 -1.7528240 1.00000 0.00000             
Pb    core -4.520870 1.7522473 4.5807124 1.75282400 1.00000 0.00000             
S     core -4.525481 10.279573 4.5842855 -1.7528240 1.00000 0.00000             
Pb    core -4.520870 10.275096 7.3919440 1.75282400 1.00000 0.00000             
S     core 10.252230 4.6116290 -4.525481 -1.7528240 1.00000 0.00000             
Pb    core 10.247752 7.4192875 -4.520870 1.75282400 1.00000 0.00000             
S     core 10.252230 7.4157144 16.498138 -1.7528240 1.00000 0.00000             
Pb    core 10.247752 4.6080559 16.493526 1.75282400 1.00000 0.00000             
S     core 13.706693 1.5447551 1.5174116 -1.7528240 1.00000 0.00000             
S     core 10.455244 -1.706693 1.5174116 -1.7528240 1.00000 0.00000             
S     core 13.074012 -1.074012 -1.101355 -1.7528240 1.00000 0.00000             
S     core 10.455244 1.5447551 -1.734037 -1.7528240 1.00000 0.00000             
Pb    core 10.435723 1.5642761 1.5369326 1.75282400 1.00000 0.00000             
Pb    core 13.307261 -1.307261 1.6932104 1.75282400 1.00000 0.00000             
Pb    core 13.307261 1.7205539 -1.334604 1.75282400 1.00000 0.00000             
Pb    core 10.279446 -1.307261 -1.334604 1.75282400 1.00000 0.00000             
S     core 13.312548 1.7211726 13.312548 -1.7528240 1.00000 0.00000             
S     core 10.278827 -1.312548 13.312548 -1.7528240 1.00000 0.00000             
S     core 13.312548 -1.312548 10.278827 -1.7528240 1.00000 0.00000             
S     core 10.438337 1.5616629 10.438337 -1.7528240 1.00000 0.00000             
Pb    core 10.458652 1.5413473 13.712051 1.75282400 1.00000 0.00000             
Pb    core 13.067855 -1.067855 13.067855 1.75282400 1.00000 0.00000             
Pb    core 13.712051 1.5413473 10.458652 1.75282400 1.00000 0.00000             
Pb    core 10.458652 -1.712051 10.458652 1.75282400 1.00000 0.00000             
S     core 10.252230 -4.498138 4.5842855 -1.7528240 1.00000 0.00000             
Pb    core 10.247752 -4.493526 7.3919440 1.75282400 1.00000 0.00000             
S     core 13.312548 13.339891 1.6938291 -1.7528240 1.00000 0.00000             
S     core 10.438337 10.465680 1.5343193 -1.7528240 1.00000 0.00000             
S     core 13.312548 10.306170 -1.339891 -1.7528240 1.00000 0.00000             
S     core 10.278827 13.339891 -1.339891 -1.7528240 1.00000 0.00000             
Pb    core 10.458652 13.739394 1.5140038 1.75282400 1.00000 0.00000             
Pb    core 13.712051 10.485996 1.5140038 1.75282400 1.00000 0.00000             
Pb    core 13.067855 13.095198 -1.095198 1.75282400 1.00000 0.00000             
Pb    core 10.458652 10.485996 -1.739394 1.75282400 1.00000 0.00000             
S     core 13.074012 13.101355 13.074012 -1.7528240 1.00000 0.00000             
S     core 10.455244 10.482588 13.706693 -1.7528240 1.00000 0.00000             
S     core 13.706693 10.482588 10.455244 -1.7528240 1.00000 0.00000             
S     core 10.455244 13.734037 10.455244 -1.7528240 1.00000 0.00000             
Pb    core 10.279446 13.334604 13.307261 1.75282400 1.00000 0.00000             
Pb    core 13.307261 10.306789 13.307261 1.75282400 1.00000 0.00000             
Pb    core 13.307261 13.334604 10.279446 1.75282400 1.00000 0.00000             
Pb    core 10.435723 10.463067 10.435723 1.75282400 1.00000 0.00000             
S     core 10.252230 16.525481 7.3883709 -1.7528240 1.00000 0.00000             
Pb    core 10.247752 16.520870 4.5807124 1.75282400 1.00000 0.00000             
S     core 16.498138 4.6116290 1.7204263 -1.7528240 1.00000 0.00000             
Pb    core 16.493526 7.4192875 1.7249037 1.75282400 1.00000 0.00000             
S     core 16.498138 7.4157144 10.252230 -1.7528240 1.00000 0.00000             
Pb    core 16.493526 4.6080559 10.247752 1.75282400 1.00000 0.00000             
S     core 16.498138 1.7477699 4.5842855 -1.7528240 1.00000 0.00000             
Pb    core 16.493526 1.7522473 7.3919440 1.75282400 1.00000 0.00000             
S     core 16.498138 10.279573 7.3883709 -1.7528240 1.00000 0.00000             
Pb    core 16.493526 10.275096 4.5807124 1.75282400 1.00000 0.00000             
S     core 7.3850177 7.4123612 -4.408128 -1.7528240 1.00000 0.00000             
S     core 4.5876387 4.6149822 -4.408128 -1.7528240 1.00000 0.00000             
Pb    core 4.5858389 7.4141610 -4.406046 1.75282400 1.00000 0.00000             
Pb    core 7.3868175 4.6131824 -4.406046 1.75282400 1.00000 0.00000             
S     core 7.3850177 4.6149822 16.380784 -1.7528240 1.00000 0.00000             
S     core 4.5876387 7.4123612 16.380784 -1.7528240 1.00000 0.00000             
Pb    core 7.3868175 7.4141610 16.378702 1.75282400 1.00000 0.00000             
Pb    core 4.5858389 4.6131824 16.378702 1.75282400 1.00000 0.00000             
S     core 7.5342532 1.5134814 1.4861379 -1.7528240 1.00000 0.00000             
S     core 4.5523234 -1.501519 1.5313594 -1.7528240 1.00000 0.00000             
S     core 7.4692883 -1.320638 -1.347982 -1.7528240 1.00000 0.00000             
S     core 4.5523234 1.5587030 -1.528863 -1.7528240 1.00000 0.00000             
Pb    core 4.4364017 1.5137861 1.4864426 1.75282400 1.00000 0.00000             
Pb    core 7.4181501 -1.502724 1.5292706 1.75282400 1.00000 0.00000             
Pb    core 7.4181501 1.5566141 -1.530067 1.75282400 1.00000 0.00000             
Pb    core 4.5036755 -1.316132 -1.343475 1.75282400 1.00000 0.00000             
S     core 7.4203330 1.5587030 13.501519 -1.7528240 1.00000 0.00000             
S     core 4.5033681 -1.320638 13.320638 -1.7528240 1.00000 0.00000             
S     core 7.4203330 -1.501519 10.441296 -1.7528240 1.00000 0.00000             
S     core 4.4384032 1.5134814 10.486518 -1.7528240 1.00000 0.00000             
Pb    core 4.5545063 1.5566141 13.502724 1.75282400 1.00000 0.00000             
Pb    core 7.4689809 -1.316132 13.316132 1.75282400 1.00000 0.00000             
Pb    core 7.5362547 1.5137861 10.486213 1.75282400 1.00000 0.00000             
Pb    core 4.5545063 -1.502724 10.443385 1.75282400 1.00000 0.00000             
S     core 7.3850177 -4.380784 7.3850177 -1.7528240 1.00000 0.00000             
S     core 4.5876387 -4.380784 4.5876387 -1.7528240 1.00000 0.00000             
Pb    core 4.5858389 -4.378702 7.3868175 1.75282400 1.00000 0.00000             
Pb    core 7.3868175 -4.378702 4.5858389 1.75282400 1.00000 0.00000             
S     core 7.4203330 13.528863 1.5313594 -1.7528240 1.00000 0.00000             
S     core 4.4384032 10.513862 1.4861379 -1.7528240 1.00000 0.00000             
S     core 7.4203330 10.468640 -1.528863 -1.7528240 1.00000 0.00000             
S     core 4.5033681 13.347982 -1.347982 -1.7528240 1.00000 0.00000             
Pb    core 4.5545063 13.530067 1.5292706 1.75282400 1.00000 0.00000             
Pb    core 7.5362547 10.513557 1.4864426 1.75282400 1.00000 0.00000             
Pb    core 7.4689809 13.343475 -1.343475 1.75282400 1.00000 0.00000             
Pb    core 4.5545063 10.470729 -1.530067 1.75282400 1.00000 0.00000             
S     core 7.4692883 13.347982 13.320638 -1.7528240 1.00000 0.00000             
S     core 4.5523234 10.468640 13.501519 -1.7528240 1.00000 0.00000             
S     core 7.5342532 10.513862 10.486518 -1.7528240 1.00000 0.00000             
S     core 4.5523234 13.528863 10.441296 -1.7528240 1.00000 0.00000             
Pb    core 4.5036755 13.343475 13.316132 1.75282400 1.00000 0.00000             
Pb    core 7.4181501 10.470729 13.502724 1.75282400 1.00000 0.00000             
Pb    core 7.4181501 13.530067 10.443385 1.75282400 1.00000 0.00000             
Pb    core 4.4364017 10.513557 10.486213 1.75282400 1.00000 0.00000             
S     core 4.5876387 16.408128 7.3850177 -1.7528240 1.00000 0.00000             
S     core 7.3850177 16.408128 4.5876387 -1.7528240 1.00000 0.00000             
Pb    core 7.3868175 16.406046 7.3868175 1.75282400 1.00000 0.00000             
Pb    core 4.5858389 16.406046 4.5858389 1.75282400 1.00000 0.00000             
S     core 1.4861379 7.5615967 1.4861379 -1.7528240 1.00000 0.00000             
S     core -1.528863 4.5796669 1.5313594 -1.7528240 1.00000 0.00000             
S     core 1.5313594 4.5796669 -1.528863 -1.7528240 1.00000 0.00000             
S     core -1.347982 7.4966318 -1.347982 -1.7528240 1.00000 0.00000             
Pb    core -1.530067 7.4454936 1.5292706 1.75282400 1.00000 0.00000             
Pb    core 1.4864426 4.4637452 1.4864426 1.75282400 1.00000 0.00000             
Pb    core 1.5292706 7.4454936 -1.530067 1.75282400 1.00000 0.00000             
Pb    core -1.343475 4.5310190 -1.343475 1.75282400 1.00000 0.00000             
S     core 1.5313594 7.4476765 13.501519 -1.7528240 1.00000 0.00000             
S     core -1.347982 4.5307116 13.320638 -1.7528240 1.00000 0.00000             
S     core 1.4861379 4.4657467 10.486518 -1.7528240 1.00000 0.00000             
S     core -1.528863 7.4476765 10.441296 -1.7528240 1.00000 0.00000             
Pb    core -1.343475 7.4963244 13.316132 1.75282400 1.00000 0.00000             
Pb    core 1.5292706 4.5818498 13.502724 1.75282400 1.00000 0.00000             
Pb    core 1.4864426 7.5635982 10.486213 1.75282400 1.00000 0.00000             
Pb    core -1.530067 4.5818498 10.443385 1.75282400 1.00000 0.00000             
S     core 1.4861379 1.5134814 7.5342532 -1.7528240 1.00000 0.00000             
S     core -1.347982 -1.320638 7.4692883 -1.7528240 1.00000 0.00000             
S     core 1.5313594 -1.501519 4.5523234 -1.7528240 1.00000 0.00000             
S     core -1.528863 1.5587030 4.5523234 -1.7528240 1.00000 0.00000             
Pb    core -1.530067 1.5566141 7.4181501 1.75282400 1.00000 0.00000             
Pb    core 1.5292706 -1.502724 7.4181501 1.75282400 1.00000 0.00000             
Pb    core 1.4864426 1.5137861 4.4364017 1.75282400 1.00000 0.00000             
Pb    core -1.343475 -1.316132 4.5036755 1.75282400 1.00000 0.00000             
S     core 1.5313594 13.528863 7.4203330 -1.7528240 1.00000 0.00000             
S     core -1.528863 10.468640 7.4203330 -1.7528240 1.00000 0.00000             
S     core 1.4861379 10.513862 4.4384032 -1.7528240 1.00000 0.00000             
S     core -1.347982 13.347982 4.5033681 -1.7528240 1.00000 0.00000             
Pb    core -1.343475 13.343475 7.4689809 1.75282400 1.00000 0.00000             
Pb    core 1.4864426 10.513557 7.5362547 1.75282400 1.00000 0.00000             
Pb    core 1.5292706 13.530067 4.5545063 1.75282400 1.00000 0.00000             
Pb    core -1.530067 10.470729 4.5545063 1.75282400 1.00000 0.00000             
S     core -4.408128 7.4123612 7.3850177 -1.7528240 1.00000 0.00000             
S     core -4.408128 4.6149822 4.5876387 -1.7528240 1.00000 0.00000             
Pb    core -4.406046 4.6131824 7.3868175 1.75282400 1.00000 0.00000             
Pb    core -4.406046 7.4141610 4.5858389 1.75282400 1.00000 0.00000             
S     core 13.501519 7.4476765 1.5313594 -1.7528240 1.00000 0.00000             
S     core 10.486518 4.4657467 1.4861379 -1.7528240 1.00000 0.00000             
S     core 13.320638 4.5307116 -1.347982 -1.7528240 1.00000 0.00000             
S     core 10.441296 7.4476765 -1.528863 -1.7528240 1.00000 0.00000             
Pb    core 10.486213 7.5635982 1.4864426 1.75282400 1.00000 0.00000             
Pb    core 13.502724 4.5818498 1.5292706 1.75282400 1.00000 0.00000             
Pb    core 13.316132 7.4963244 -1.343475 1.75282400 1.00000 0.00000             
Pb    core 10.443385 4.5818498 -1.530067 1.75282400 1.00000 0.00000             
S     core 13.320638 7.4966318 13.320638 -1.7528240 1.00000 0.00000             
S     core 10.441296 4.5796669 13.501519 -1.7528240 1.00000 0.00000             
S     core 13.501519 4.5796669 10.441296 -1.7528240 1.00000 0.00000             
S     core 10.486518 7.5615967 10.486518 -1.7528240 1.00000 0.00000             
Pb    core 10.443385 7.4454936 13.502724 1.75282400 1.00000 0.00000             
Pb    core 13.316132 4.5310190 13.316132 1.75282400 1.00000 0.00000             
Pb    core 13.502724 7.4454936 10.443385 1.75282400 1.00000 0.00000             
Pb    core 10.486213 4.4637452 10.486213 1.75282400 1.00000 0.00000             
S     core 13.501519 1.5587030 7.4203330 -1.7528240 1.00000 0.00000             
S     core 10.441296 -1.501519 7.4203330 -1.7528240 1.00000 0.00000             
S     core 13.320638 -1.320638 4.5033681 -1.7528240 1.00000 0.00000             
S     core 10.486518 1.5134814 4.4384032 -1.7528240 1.00000 0.00000             
Pb    core 10.486213 1.5137861 7.5362547 1.75282400 1.00000 0.00000             
Pb    core 13.316132 -1.316132 7.4689809 1.75282400 1.00000 0.00000             
Pb    core 13.502724 1.5566141 4.5545063 1.75282400 1.00000 0.00000             
Pb    core 10.443385 -1.502724 4.5545063 1.75282400 1.00000 0.00000             
S     core 13.320638 13.347982 7.4692883 -1.7528240 1.00000 0.00000             
S     core 10.486518 10.513862 7.5342532 -1.7528240 1.00000 0.00000             
S     core 13.501519 10.468640 4.5523234 -1.7528240 1.00000 0.00000             
S     core 10.441296 13.528863 4.5523234 -1.7528240 1.00000 0.00000             
Pb    core 10.443385 13.530067 7.4181501 1.75282400 1.00000 0.00000             
Pb    core 13.502724 10.470729 7.4181501 1.75282400 1.00000 0.00000             
Pb    core 13.316132 13.343475 4.5036755 1.75282400 1.00000 0.00000             
Pb    core 10.486213 10.513557 4.4364017 1.75282400 1.00000 0.00000             
S     core 16.380784 4.6149822 7.3850177 -1.7528240 1.00000 0.00000             
S     core 16.380784 7.4123612 4.5876387 -1.7528240 1.00000 0.00000             
Pb    core 16.378702 7.4141610 7.3868175 1.75282400 1.00000 0.00000             
Pb    core 16.378702 4.6131824 4.5858389 1.75282400 1.00000 0.00000             
S     core 7.4769048 7.5042483 1.5156051 -1.7528240 1.00000 0.00000             
S     core 4.4957516 4.5230951 1.5156051 -1.7528240 1.00000 0.00000             
S     core 7.4877876 4.5122123 -1.440805 -1.7528240 1.00000 0.00000             
S     core 4.4848688 7.5151311 -1.440805 -1.7528240 1.00000 0.00000             
Pb    core 4.4957010 7.5042989 1.5154379 1.75282400 1.00000 0.00000             
Pb    core 7.4769554 4.5230445 1.5154379 1.75282400 1.00000 0.00000             
Pb    core 7.4866705 7.5140140 -1.440801 1.75282400 1.00000 0.00000             
Pb    core 4.4859859 4.5133294 -1.440801 1.75282400 1.00000 0.00000             
S     core 7.4877876 7.5151311 13.413462 -1.7528240 1.00000 0.00000             
S     core 4.4848688 4.5122123 13.413462 -1.7528240 1.00000 0.00000             
S     core 7.4769048 4.5230951 10.457051 -1.7528240 1.00000 0.00000             
S     core 4.4957516 7.5042483 10.457051 -1.7528240 1.00000 0.00000             
Pb    core 4.4859859 7.5140140 13.413458 1.75282400 1.00000 0.00000             
Pb    core 7.4866705 4.5133294 13.413458 1.75282400 1.00000 0.00000             
Pb    core 7.4769554 7.5042989 10.457218 1.75282400 1.00000 0.00000             
Pb    core 4.4957010 4.5230445 10.457218 1.75282400 1.00000 0.00000             
S     core 7.4769048 1.5429486 7.4769048 -1.7528240 1.00000 0.00000             
S     core 4.4848688 -1.413462 7.4877876 -1.7528240 1.00000 0.00000             
S     core 7.4877876 -1.413462 4.4848688 -1.7528240 1.00000 0.00000             
S     core 4.4957516 1.5429486 4.4957516 -1.7528240 1.00000 0.00000             
Pb    core 4.4957010 1.5427814 7.4769554 1.75282400 1.00000 0.00000             
Pb    core 7.4866705 -1.413458 7.4866705 1.75282400 1.00000 0.00000             
Pb    core 7.4769554 1.5427814 4.4957010 1.75282400 1.00000 0.00000             
Pb    core 4.4859859 -1.413458 4.4859859 1.75282400 1.00000 0.00000             
S     core 7.4877876 13.440805 7.4877876 -1.7528240 1.00000 0.00000             
S     core 4.4957516 10.484394 7.4769048 -1.7528240 1.00000 0.00000             
S     core 7.4769048 10.484394 4.4957516 -1.7528240 1.00000 0.00000             
S     core 4.4848688 13.440805 4.4848688 -1.7528240 1.00000 0.00000             
Pb    core 4.4859859 13.440801 7.4866705 1.75282400 1.00000 0.00000             
Pb    core 7.4769554 10.484562 7.4769554 1.75282400 1.00000 0.00000             
Pb    core 7.4866705 13.440801 4.4859859 1.75282400 1.00000 0.00000             
Pb    core 4.4957010 10.484562 4.4957010 1.75282400 1.00000 0.00000             
S     core 1.5156051 7.5042483 7.4769048 -1.7528240 1.00000 0.00000             
S     core -1.440805 4.5122123 7.4877876 -1.7528240 1.00000 0.00000             
S     core 1.5156051 4.5230951 4.4957516 -1.7528240 1.00000 0.00000             
S     core -1.440805 7.5151311 4.4848688 -1.7528240 1.00000 0.00000             
Pb    core -1.440801 7.5140140 7.4866705 1.75282400 1.00000 0.00000             
Pb    core 1.5154379 4.5230445 7.4769554 1.75282400 1.00000 0.00000             
Pb    core 1.5154379 7.5042989 4.4957010 1.75282400 1.00000 0.00000             
Pb    core -1.440801 4.5133294 4.4859859 1.75282400 1.00000 0.00000             
S     core 13.413462 7.5151311 7.4877876 -1.7528240 1.00000 0.00000             
S     core 10.457051 4.5230951 7.4769048 -1.7528240 1.00000 0.00000             
S     core 13.413462 4.5122123 4.4848688 -1.7528240 1.00000 0.00000             
S     core 10.457051 7.5042483 4.4957516 -1.7528240 1.00000 0.00000             
Pb    core 10.457218 7.5042989 7.4769554 1.75282400 1.00000 0.00000             
Pb    core 13.413458 4.5133294 7.4866705 1.75282400 1.00000 0.00000             
Pb    core 13.413458 7.5140140 4.4859859 1.75282400 1.00000 0.00000             
Pb    core 10.457218 4.5230445 4.4957010 1.75282400 1.00000 0.00000             
S     core 7.4842017 7.5115452 7.4842017 -1.7528240 1.00000 0.00000             
S     core 4.4884547 4.5157982 7.4842017 -1.7528240 1.00000 0.00000             
S     core 7.4842017 4.5157982 4.4884547 -1.7528240 1.00000 0.00000             
S     core 4.4884547 7.5115452 4.4884547 -1.7528240 1.00000 0.00000             
Pb    core 4.4886564 7.5113435 7.4840000 1.75282400 1.00000 0.00000             
Pb    core 7.4840000 4.5160000 7.4840000 1.75282400 1.00000 0.00000             
Pb    core 7.4840000 7.5113435 4.4886564 1.75282400 1.00000 0.00000             
Pb    core 4.4886564 4.5160000 4.4886564 1.75282400 1.00000 0.00000             
species   2
S      core   -1.752824                  
Pb     core    1.752824                  
buck     
S     core S     core  11413.0900     0.153000  129.1800      0.00 15.00
buck     
Pb    core Pb    core  11413.0900     0.153000  200.0000      0.00 15.00
buck     
S     core Pb    core  2845.45780     0.347536  0.000000      0.00 15.00
dump Results\PbS_COMP_CUBIC_07.gin                               
output frc Results\PbS_COMP_CUBIC_07.frc                               
