# 
# Keywords:
# 
conp opti  
# 
# Options:
# 
cartesian 
S     core -4.227205 -4.227205 -10.72670 -1.7528240 1.00000 0.00000             
S     core -6.839300 -6.839300 -10.34378 -1.7528240 1.00000 0.00000             
Pb    core -7.130093 -4.118705 -10.24384 1.75282400 1.00000 0.00000             
Pb    core -4.118705 -7.130093 -10.24384 1.75282400 1.00000 0.00000             
Pb    core -3.811031 -3.811031 -13.49896 1.75282400 1.00000 0.00000             
S     core -3.816239 -3.816239 25.502758 -1.7528240 1.00000 0.00000             
S     core -4.115262 -7.135346 22.245289 -1.7528240 1.00000 0.00000             
S     core -7.135346 -4.115262 22.245289 -1.7528240 1.00000 0.00000             
Pb    core -4.229477 -4.229477 22.727979 1.75282400 1.00000 0.00000             
Pb    core -6.831624 -6.831624 22.330346 1.75282400 1.00000 0.00000             
S     core -4.227205 -10.72670 -4.227205 -1.7528240 1.00000 0.00000             
S     core -6.839300 -10.34378 -6.839300 -1.7528240 1.00000 0.00000             
Pb    core -7.130093 -10.24384 -4.118705 1.75282400 1.00000 0.00000             
Pb    core -3.811031 -13.49896 -3.811031 1.75282400 1.00000 0.00000             
Pb    core -4.118705 -10.24384 -7.130093 1.75282400 1.00000 0.00000             
S     core -4.115262 -10.25015 19.130482 -1.7528240 1.00000 0.00000             
S     core -3.816239 -13.50762 15.811375 -1.7528240 1.00000 0.00000             
S     core -7.135346 -10.25015 16.110398 -1.7528240 1.00000 0.00000             
Pb    core -6.831624 -10.33521 18.826760 1.75282400 1.00000 0.00000             
Pb    core -4.229477 -10.73284 16.224613 1.75282400 1.00000 0.00000             
S     core -4.115262 19.130482 -10.25015 -1.7528240 1.00000 0.00000             
S     core -7.135346 16.110398 -10.25015 -1.7528240 1.00000 0.00000             
S     core -3.816239 15.811375 -13.50762 -1.7528240 1.00000 0.00000             
Pb    core -6.831624 18.826760 -10.33521 1.75282400 1.00000 0.00000             
Pb    core -4.229477 16.224613 -10.73284 1.75282400 1.00000 0.00000             
S     core -4.227205 16.222342 22.721842 -1.7528240 1.00000 0.00000             
S     core -6.839300 18.834436 22.338923 -1.7528240 1.00000 0.00000             
Pb    core -3.811031 15.806167 25.494098 1.75282400 1.00000 0.00000             
Pb    core -4.118705 19.125229 22.238979 1.75282400 1.00000 0.00000             
Pb    core -7.130093 16.113841 22.238979 1.75282400 1.00000 0.00000             
S     core -3.816239 25.502758 -3.816239 -1.7528240 1.00000 0.00000             
S     core -7.135346 22.245289 -4.115262 -1.7528240 1.00000 0.00000             
S     core -4.115262 22.245289 -7.135346 -1.7528240 1.00000 0.00000             
Pb    core -4.229477 22.727979 -4.229477 1.75282400 1.00000 0.00000             
Pb    core -6.831624 22.330346 -6.831624 1.75282400 1.00000 0.00000             
S     core -6.839300 22.338923 18.834436 -1.7528240 1.00000 0.00000             
S     core -4.227205 22.721842 16.222342 -1.7528240 1.00000 0.00000             
Pb    core -4.118705 22.238979 19.125229 1.75282400 1.00000 0.00000             
Pb    core -3.811031 25.494098 15.806167 1.75282400 1.00000 0.00000             
Pb    core -7.130093 22.238979 16.113841 1.75282400 1.00000 0.00000             
S     core -10.72670 -4.227205 -4.227205 -1.7528240 1.00000 0.00000             
S     core -10.34378 -6.839300 -6.839300 -1.7528240 1.00000 0.00000             
Pb    core -13.49896 -3.811031 -3.811031 1.75282400 1.00000 0.00000             
Pb    core -10.24384 -7.130093 -4.118705 1.75282400 1.00000 0.00000             
Pb    core -10.24384 -4.118705 -7.130093 1.75282400 1.00000 0.00000             
S     core -10.25015 -4.115262 19.130482 -1.7528240 1.00000 0.00000             
S     core -10.25015 -7.135346 16.110398 -1.7528240 1.00000 0.00000             
S     core -13.50762 -3.816239 15.811375 -1.7528240 1.00000 0.00000             
Pb    core -10.33521 -6.831624 18.826760 1.75282400 1.00000 0.00000             
Pb    core -10.73284 -4.229477 16.224613 1.75282400 1.00000 0.00000             
S     core -10.25015 19.130482 -4.115262 -1.7528240 1.00000 0.00000             
S     core -13.50762 15.811375 -3.816239 -1.7528240 1.00000 0.00000             
S     core -10.25015 16.110398 -7.135346 -1.7528240 1.00000 0.00000             
Pb    core -10.73284 16.224613 -4.229477 1.75282400 1.00000 0.00000             
Pb    core -10.33521 18.826760 -6.831624 1.75282400 1.00000 0.00000             
S     core -10.34378 18.834436 18.834436 -1.7528240 1.00000 0.00000             
S     core -10.72670 16.222342 16.222342 -1.7528240 1.00000 0.00000             
Pb    core -10.24384 16.113841 19.125229 1.75282400 1.00000 0.00000             
Pb    core -10.24384 19.125229 16.113841 1.75282400 1.00000 0.00000             
Pb    core -13.49896 15.806167 15.806167 1.75282400 1.00000 0.00000             
S     core 19.130482 -4.115262 -10.25015 -1.7528240 1.00000 0.00000             
S     core 16.110398 -7.135346 -10.25015 -1.7528240 1.00000 0.00000             
S     core 15.811375 -3.816239 -13.50762 -1.7528240 1.00000 0.00000             
Pb    core 16.224613 -4.229477 -10.73284 1.75282400 1.00000 0.00000             
Pb    core 18.826760 -6.831624 -10.33521 1.75282400 1.00000 0.00000             
S     core 18.834436 -6.839300 22.338923 -1.7528240 1.00000 0.00000             
S     core 16.222342 -4.227205 22.721842 -1.7528240 1.00000 0.00000             
Pb    core 15.806167 -3.811031 25.494098 1.75282400 1.00000 0.00000             
Pb    core 19.125229 -4.118705 22.238979 1.75282400 1.00000 0.00000             
Pb    core 16.113841 -7.130093 22.238979 1.75282400 1.00000 0.00000             
S     core 19.130482 -10.25015 -4.115262 -1.7528240 1.00000 0.00000             
S     core 15.811375 -13.50762 -3.816239 -1.7528240 1.00000 0.00000             
S     core 16.110398 -10.25015 -7.135346 -1.7528240 1.00000 0.00000             
Pb    core 16.224613 -10.73284 -4.229477 1.75282400 1.00000 0.00000             
Pb    core 18.826760 -10.33521 -6.831624 1.75282400 1.00000 0.00000             
S     core 18.834436 -10.34378 18.834436 -1.7528240 1.00000 0.00000             
S     core 16.222342 -10.72670 16.222342 -1.7528240 1.00000 0.00000             
Pb    core 16.113841 -10.24384 19.125229 1.75282400 1.00000 0.00000             
Pb    core 19.125229 -10.24384 16.113841 1.75282400 1.00000 0.00000             
Pb    core 15.806167 -13.49896 15.806167 1.75282400 1.00000 0.00000             
S     core 18.834436 18.834436 -10.34378 -1.7528240 1.00000 0.00000             
S     core 16.222342 16.222342 -10.72670 -1.7528240 1.00000 0.00000             
Pb    core 16.113841 19.125229 -10.24384 1.75282400 1.00000 0.00000             
Pb    core 19.125229 16.113841 -10.24384 1.75282400 1.00000 0.00000             
Pb    core 15.806167 15.806167 -13.49896 1.75282400 1.00000 0.00000             
S     core 15.811375 15.811375 25.502758 -1.7528240 1.00000 0.00000             
S     core 19.130482 16.110398 22.245289 -1.7528240 1.00000 0.00000             
S     core 16.110398 19.130482 22.245289 -1.7528240 1.00000 0.00000             
Pb    core 18.826760 18.826760 22.330346 1.75282400 1.00000 0.00000             
Pb    core 16.224613 16.224613 22.727979 1.75282400 1.00000 0.00000             
S     core 16.222342 22.721842 -4.227205 -1.7528240 1.00000 0.00000             
S     core 18.834436 22.338923 -6.839300 -1.7528240 1.00000 0.00000             
Pb    core 15.806167 25.494098 -3.811031 1.75282400 1.00000 0.00000             
Pb    core 19.125229 22.238979 -4.118705 1.75282400 1.00000 0.00000             
Pb    core 16.113841 22.238979 -7.130093 1.75282400 1.00000 0.00000             
S     core 16.110398 22.245289 19.130482 -1.7528240 1.00000 0.00000             
S     core 19.130482 22.245289 16.110398 -1.7528240 1.00000 0.00000             
S     core 15.811375 25.502758 15.811375 -1.7528240 1.00000 0.00000             
Pb    core 18.826760 22.330346 18.826760 1.75282400 1.00000 0.00000             
Pb    core 16.224613 22.727979 16.224613 1.75282400 1.00000 0.00000             
S     core 25.502758 -3.816239 -3.816239 -1.7528240 1.00000 0.00000             
S     core 22.245289 -7.135346 -4.115262 -1.7528240 1.00000 0.00000             
S     core 22.245289 -4.115262 -7.135346 -1.7528240 1.00000 0.00000             
Pb    core 22.727979 -4.229477 -4.229477 1.75282400 1.00000 0.00000             
Pb    core 22.330346 -6.831624 -6.831624 1.75282400 1.00000 0.00000             
S     core 22.338923 -6.839300 18.834436 -1.7528240 1.00000 0.00000             
S     core 22.721842 -4.227205 16.222342 -1.7528240 1.00000 0.00000             
Pb    core 22.238979 -4.118705 19.125229 1.75282400 1.00000 0.00000             
Pb    core 25.494098 -3.811031 15.806167 1.75282400 1.00000 0.00000             
Pb    core 22.238979 -7.130093 16.113841 1.75282400 1.00000 0.00000             
S     core 22.721842 16.222342 -4.227205 -1.7528240 1.00000 0.00000             
S     core 22.338923 18.834436 -6.839300 -1.7528240 1.00000 0.00000             
Pb    core 22.238979 19.125229 -4.118705 1.75282400 1.00000 0.00000             
Pb    core 25.494098 15.806167 -3.811031 1.75282400 1.00000 0.00000             
Pb    core 22.238979 16.113841 -7.130093 1.75282400 1.00000 0.00000             
S     core 22.245289 16.110398 19.130482 -1.7528240 1.00000 0.00000             
S     core 25.502758 15.811375 15.811375 -1.7528240 1.00000 0.00000             
S     core 22.245289 19.130482 16.110398 -1.7528240 1.00000 0.00000             
Pb    core 22.330346 18.826760 18.826760 1.75282400 1.00000 0.00000             
Pb    core 22.727979 16.224613 16.224613 1.75282400 1.00000 0.00000             
S     core 1.6353646 -4.327701 -10.46245 -1.7528240 1.00000 0.00000             
S     core -1.251436 -7.169089 -10.30347 -1.7528240 1.00000 0.00000             
S     core -1.082426 -3.978915 -13.48341 -1.7528240 1.00000 0.00000             
Pb    core -1.271847 -4.302527 -10.47384 1.75282400 1.00000 0.00000             
Pb    core 1.6403660 -7.205761 -10.30201 1.75282400 1.00000 0.00000             
Pb    core 1.7421706 -4.011410 -13.41986 1.75282400 1.00000 0.00000             
S     core 1.7404379 -4.016097 25.419661 -1.7528240 1.00000 0.00000             
S     core 1.6417835 -7.210324 22.301929 -1.7528240 1.00000 0.00000             
S     core -1.272731 -4.300045 22.468136 -1.7528240 1.00000 0.00000             
Pb    core -1.084629 -3.974550 25.473474 1.75282400 1.00000 0.00000             
Pb    core 1.6352484 -4.329641 22.459750 1.75282400 1.00000 0.00000             
Pb    core -1.248474 -7.164337 22.293510 1.75282400 1.00000 0.00000             
S     core 1.6353646 -10.46245 -4.327701 -1.7528240 1.00000 0.00000             
S     core -1.082426 -13.48341 -3.978915 -1.7528240 1.00000 0.00000             
S     core -1.251436 -10.30347 -7.169089 -1.7528240 1.00000 0.00000             
Pb    core -1.271847 -10.47384 -4.302527 1.75282400 1.00000 0.00000             
Pb    core 1.7421706 -13.41986 -4.011410 1.75282400 1.00000 0.00000             
Pb    core 1.6403660 -10.30201 -7.205761 1.75282400 1.00000 0.00000             
S     core 1.6417835 -10.30679 19.205460 -1.7528240 1.00000 0.00000             
S     core 1.7404379 -13.42452 16.011233 -1.7528240 1.00000 0.00000             
S     core -1.272731 -10.47299 16.295182 -1.7528240 1.00000 0.00000             
Pb    core -1.248474 -10.29837 19.159473 1.75282400 1.00000 0.00000             
Pb    core 1.6352484 -10.46461 16.324777 1.75282400 1.00000 0.00000             
Pb    core -1.084629 -13.47833 15.969686 1.75282400 1.00000 0.00000             
S     core 1.6417835 19.205460 -10.30679 -1.7528240 1.00000 0.00000             
S     core -1.272731 16.295182 -10.47299 -1.7528240 1.00000 0.00000             
S     core 1.7404379 16.011233 -13.42452 -1.7528240 1.00000 0.00000             
Pb    core -1.248474 19.159473 -10.29837 1.75282400 1.00000 0.00000             
Pb    core 1.6352484 16.324777 -10.46461 1.75282400 1.00000 0.00000             
Pb    core -1.084629 15.969686 -13.47833 1.75282400 1.00000 0.00000             
S     core -1.082426 15.974052 25.478552 -1.7528240 1.00000 0.00000             
S     core 1.6353646 16.322837 22.457586 -1.7528240 1.00000 0.00000             
S     core -1.251436 19.164226 22.298606 -1.7528240 1.00000 0.00000             
Pb    core 1.7421706 16.006547 25.415000 1.75282400 1.00000 0.00000             
Pb    core 1.6403660 19.200897 22.297148 1.75282400 1.00000 0.00000             
Pb    core -1.271847 16.297663 22.468984 1.75282400 1.00000 0.00000             
S     core 1.7404379 25.419661 -4.016097 -1.7528240 1.00000 0.00000             
S     core -1.272731 22.468136 -4.300045 -1.7528240 1.00000 0.00000             
S     core 1.6417835 22.301929 -7.210324 -1.7528240 1.00000 0.00000             
Pb    core -1.084629 25.473474 -3.974550 1.75282400 1.00000 0.00000             
Pb    core 1.6352484 22.459750 -4.329641 1.75282400 1.00000 0.00000             
Pb    core -1.248474 22.293510 -7.164337 1.75282400 1.00000 0.00000             
S     core -1.251436 22.298606 19.164226 -1.7528240 1.00000 0.00000             
S     core 1.6353646 22.457586 16.322837 -1.7528240 1.00000 0.00000             
S     core -1.082426 25.478552 15.974052 -1.7528240 1.00000 0.00000             
Pb    core 1.6403660 22.297148 19.200897 1.75282400 1.00000 0.00000             
Pb    core 1.7421706 25.415000 16.006547 1.75282400 1.00000 0.00000             
Pb    core -1.271847 22.468984 16.297663 1.75282400 1.00000 0.00000             
S     core -4.327701 1.6353646 -10.46245 -1.7528240 1.00000 0.00000             
S     core -7.169089 -1.251436 -10.30347 -1.7528240 1.00000 0.00000             
S     core -3.978915 -1.082426 -13.48341 -1.7528240 1.00000 0.00000             
Pb    core -7.205761 1.6403660 -10.30201 1.75282400 1.00000 0.00000             
Pb    core -4.302527 -1.271847 -10.47384 1.75282400 1.00000 0.00000             
Pb    core -4.011410 1.7421706 -13.41986 1.75282400 1.00000 0.00000             
S     core -4.016097 1.7404379 25.419661 -1.7528240 1.00000 0.00000             
S     core -4.300045 -1.272731 22.468136 -1.7528240 1.00000 0.00000             
S     core -7.210324 1.6417835 22.301929 -1.7528240 1.00000 0.00000             
Pb    core -3.974550 -1.084629 25.473474 1.75282400 1.00000 0.00000             
Pb    core -4.329641 1.6352484 22.459750 1.75282400 1.00000 0.00000             
Pb    core -7.164337 -1.248474 22.293510 1.75282400 1.00000 0.00000             
S     core -4.405139 -4.405139 -4.405139 -1.7528240 1.00000 0.00000             
S     core -7.372117 -7.372117 -4.197139 -1.7528240 1.00000 0.00000             
S     core -4.197139 -7.372117 -7.372117 -1.7528240 1.00000 0.00000             
S     core -7.372117 -4.197139 -7.372117 -1.7528240 1.00000 0.00000             
Pb    core -7.381542 -4.412070 -4.412070 1.75282400 1.00000 0.00000             
Pb    core -4.412070 -7.381542 -4.412070 1.75282400 1.00000 0.00000             
Pb    core -4.412070 -4.412070 -7.381542 1.75282400 1.00000 0.00000             
Pb    core -7.743002 -7.743002 -7.743002 1.75282400 1.00000 0.00000             
S     core -4.414193 -4.414193 19.379596 -1.7528240 1.00000 0.00000             
S     core -7.734754 -7.734754 19.729890 -1.7528240 1.00000 0.00000             
S     core -4.414193 -7.384460 16.409329 -1.7528240 1.00000 0.00000             
S     core -7.384460 -4.414193 16.409329 -1.7528240 1.00000 0.00000             
Pb    core -7.374762 -4.195014 19.369898 1.75282400 1.00000 0.00000             
Pb    core -4.195014 -7.374762 19.369898 1.75282400 1.00000 0.00000             
Pb    core -4.407032 -4.407032 16.402168 1.75282400 1.00000 0.00000             
Pb    core -7.374762 -7.374762 16.190151 1.75282400 1.00000 0.00000             
S     core -4.327701 -10.46245 1.6353646 -1.7528240 1.00000 0.00000             
S     core -3.978915 -13.48341 -1.082426 -1.7528240 1.00000 0.00000             
S     core -7.169089 -10.30347 -1.251436 -1.7528240 1.00000 0.00000             
Pb    core -7.205761 -10.30201 1.6403660 1.75282400 1.00000 0.00000             
Pb    core -4.011410 -13.41986 1.7421706 1.75282400 1.00000 0.00000             
Pb    core -4.302527 -10.47384 -1.271847 1.75282400 1.00000 0.00000             
S     core -4.300045 -10.47299 13.267867 -1.7528240 1.00000 0.00000             
S     core -4.016097 -13.42452 10.254698 -1.7528240 1.00000 0.00000             
S     core -7.210324 -10.30679 10.353352 -1.7528240 1.00000 0.00000             
Pb    core -7.164337 -10.29837 13.243610 1.75282400 1.00000 0.00000             
Pb    core -3.974550 -13.47833 13.079765 1.75282400 1.00000 0.00000             
Pb    core -4.329641 -10.46461 10.359887 1.75282400 1.00000 0.00000             
S     core -4.300045 13.267867 -10.47299 -1.7528240 1.00000 0.00000             
S     core -7.210324 10.353352 -10.30679 -1.7528240 1.00000 0.00000             
S     core -4.016097 10.254698 -13.42452 -1.7528240 1.00000 0.00000             
Pb    core -7.164337 13.243610 -10.29837 1.75282400 1.00000 0.00000             
Pb    core -4.329641 10.359887 -10.46461 1.75282400 1.00000 0.00000             
Pb    core -3.974550 13.079765 -13.47833 1.75282400 1.00000 0.00000             
S     core -3.978915 13.077562 25.478552 -1.7528240 1.00000 0.00000             
S     core -4.327701 10.359771 22.457586 -1.7528240 1.00000 0.00000             
S     core -7.169089 13.246572 22.298606 -1.7528240 1.00000 0.00000             
Pb    core -4.011410 10.252965 25.415000 1.75282400 1.00000 0.00000             
Pb    core -4.302527 13.266983 22.468984 1.75282400 1.00000 0.00000             
Pb    core -7.205761 10.354770 22.297148 1.75282400 1.00000 0.00000             
S     core -4.414193 19.379596 -4.414193 -1.7528240 1.00000 0.00000             
S     core -7.384460 16.409329 -4.414193 -1.7528240 1.00000 0.00000             
S     core -4.414193 16.409329 -7.384460 -1.7528240 1.00000 0.00000             
S     core -7.734754 19.729890 -7.734754 -1.7528240 1.00000 0.00000             
Pb    core -7.374762 19.369898 -4.195014 1.75282400 1.00000 0.00000             
Pb    core -4.407032 16.402168 -4.407032 1.75282400 1.00000 0.00000             
Pb    core -4.195014 19.369898 -7.374762 1.75282400 1.00000 0.00000             
Pb    core -7.374762 16.190151 -7.374762 1.75282400 1.00000 0.00000             
S     core -4.197139 19.367253 19.367253 -1.7528240 1.00000 0.00000             
S     core -7.372117 16.192275 19.367253 -1.7528240 1.00000 0.00000             
S     core -4.405139 16.400276 16.400276 -1.7528240 1.00000 0.00000             
S     core -7.372117 19.367253 16.192275 -1.7528240 1.00000 0.00000             
Pb    core -7.743002 19.738138 19.738138 1.75282400 1.00000 0.00000             
Pb    core -4.412070 16.407206 19.376678 1.75282400 1.00000 0.00000             
Pb    core -4.412070 19.376678 16.407206 1.75282400 1.00000 0.00000             
Pb    core -7.381542 16.407206 16.407206 1.75282400 1.00000 0.00000             
S     core -4.016097 25.419661 1.7404379 -1.7528240 1.00000 0.00000             
S     core -7.210324 22.301929 1.6417835 -1.7528240 1.00000 0.00000             
S     core -4.300045 22.468136 -1.272731 -1.7528240 1.00000 0.00000             
Pb    core -4.329641 22.459750 1.6352484 1.75282400 1.00000 0.00000             
Pb    core -3.974550 25.473474 -1.084629 1.75282400 1.00000 0.00000             
Pb    core -7.164337 22.293510 -1.248474 1.75282400 1.00000 0.00000             
S     core -3.978915 25.478552 13.077562 -1.7528240 1.00000 0.00000             
S     core -7.169089 22.298606 13.246572 -1.7528240 1.00000 0.00000             
S     core -4.327701 22.457586 10.359771 -1.7528240 1.00000 0.00000             
Pb    core -4.302527 22.468984 13.266983 1.75282400 1.00000 0.00000             
Pb    core -4.011410 25.415000 10.252965 1.75282400 1.00000 0.00000             
Pb    core -7.205761 22.297148 10.354770 1.75282400 1.00000 0.00000             
S     core -10.46245 1.6353646 -4.327701 -1.7528240 1.00000 0.00000             
S     core -13.48341 -1.082426 -3.978915 -1.7528240 1.00000 0.00000             
S     core -10.30347 -1.251436 -7.169089 -1.7528240 1.00000 0.00000             
Pb    core -13.41986 1.7421706 -4.011410 1.75282400 1.00000 0.00000             
Pb    core -10.47384 -1.271847 -4.302527 1.75282400 1.00000 0.00000             
Pb    core -10.30201 1.6403660 -7.205761 1.75282400 1.00000 0.00000             
S     core -10.30679 1.6417835 19.205460 -1.7528240 1.00000 0.00000             
S     core -10.47299 -1.272731 16.295182 -1.7528240 1.00000 0.00000             
S     core -13.42452 1.7404379 16.011233 -1.7528240 1.00000 0.00000             
Pb    core -10.29837 -1.248474 19.159473 1.75282400 1.00000 0.00000             
Pb    core -10.46461 1.6352484 16.324777 1.75282400 1.00000 0.00000             
Pb    core -13.47833 -1.084629 15.969686 1.75282400 1.00000 0.00000             
S     core -10.46245 -4.327701 1.6353646 -1.7528240 1.00000 0.00000             
S     core -10.30347 -7.169089 -1.251436 -1.7528240 1.00000 0.00000             
S     core -13.48341 -3.978915 -1.082426 -1.7528240 1.00000 0.00000             
Pb    core -13.41986 -4.011410 1.7421706 1.75282400 1.00000 0.00000             
Pb    core -10.30201 -7.205761 1.6403660 1.75282400 1.00000 0.00000             
Pb    core -10.47384 -4.302527 -1.271847 1.75282400 1.00000 0.00000             
S     core -10.47299 -4.300045 13.267867 -1.7528240 1.00000 0.00000             
S     core -10.30679 -7.210324 10.353352 -1.7528240 1.00000 0.00000             
S     core -13.42452 -4.016097 10.254698 -1.7528240 1.00000 0.00000             
Pb    core -13.47833 -3.974550 13.079765 1.75282400 1.00000 0.00000             
Pb    core -10.29837 -7.164337 13.243610 1.75282400 1.00000 0.00000             
Pb    core -10.46461 -4.329641 10.359887 1.75282400 1.00000 0.00000             
S     core -10.47299 13.267867 -4.300045 -1.7528240 1.00000 0.00000             
S     core -13.42452 10.254698 -4.016097 -1.7528240 1.00000 0.00000             
S     core -10.30679 10.353352 -7.210324 -1.7528240 1.00000 0.00000             
Pb    core -13.47833 13.079765 -3.974550 1.75282400 1.00000 0.00000             
Pb    core -10.46461 10.359887 -4.329641 1.75282400 1.00000 0.00000             
Pb    core -10.29837 13.243610 -7.164337 1.75282400 1.00000 0.00000             
S     core -10.30347 13.246572 19.164226 -1.7528240 1.00000 0.00000             
S     core -10.46245 10.359771 16.322837 -1.7528240 1.00000 0.00000             
S     core -13.48341 13.077562 15.974052 -1.7528240 1.00000 0.00000             
Pb    core -10.30201 10.354770 19.200897 1.75282400 1.00000 0.00000             
Pb    core -10.47384 13.266983 16.297663 1.75282400 1.00000 0.00000             
Pb    core -13.41986 10.252965 16.006547 1.75282400 1.00000 0.00000             
S     core -10.30679 19.205460 1.6417835 -1.7528240 1.00000 0.00000             
S     core -13.42452 16.011233 1.7404379 -1.7528240 1.00000 0.00000             
S     core -10.47299 16.295182 -1.272731 -1.7528240 1.00000 0.00000             
Pb    core -10.46461 16.324777 1.6352484 1.75282400 1.00000 0.00000             
Pb    core -10.29837 19.159473 -1.248474 1.75282400 1.00000 0.00000             
Pb    core -13.47833 15.969686 -1.084629 1.75282400 1.00000 0.00000             
S     core -10.30347 19.164226 13.246572 -1.7528240 1.00000 0.00000             
S     core -13.48341 15.974052 13.077562 -1.7528240 1.00000 0.00000             
S     core -10.46245 16.322837 10.359771 -1.7528240 1.00000 0.00000             
Pb    core -10.47384 16.297663 13.266983 1.75282400 1.00000 0.00000             
Pb    core -10.30201 19.200897 10.354770 1.75282400 1.00000 0.00000             
Pb    core -13.41986 16.006547 10.252965 1.75282400 1.00000 0.00000             
S     core 13.267867 -4.300045 -10.47299 -1.7528240 1.00000 0.00000             
S     core 10.353352 -7.210324 -10.30679 -1.7528240 1.00000 0.00000             
S     core 10.254698 -4.016097 -13.42452 -1.7528240 1.00000 0.00000             
Pb    core 10.359887 -4.329641 -10.46461 1.75282400 1.00000 0.00000             
Pb    core 13.243610 -7.164337 -10.29837 1.75282400 1.00000 0.00000             
Pb    core 13.079765 -3.974550 -13.47833 1.75282400 1.00000 0.00000             
S     core 13.077562 -3.978915 25.478552 -1.7528240 1.00000 0.00000             
S     core 13.246572 -7.169089 22.298606 -1.7528240 1.00000 0.00000             
S     core 10.359771 -4.327701 22.457586 -1.7528240 1.00000 0.00000             
Pb    core 10.252965 -4.011410 25.415000 1.75282400 1.00000 0.00000             
Pb    core 13.266983 -4.302527 22.468984 1.75282400 1.00000 0.00000             
Pb    core 10.354770 -7.205761 22.297148 1.75282400 1.00000 0.00000             
S     core 13.267867 -10.47299 -4.300045 -1.7528240 1.00000 0.00000             
S     core 10.254698 -13.42452 -4.016097 -1.7528240 1.00000 0.00000             
S     core 10.353352 -10.30679 -7.210324 -1.7528240 1.00000 0.00000             
Pb    core 10.359887 -10.46461 -4.329641 1.75282400 1.00000 0.00000             
Pb    core 13.079765 -13.47833 -3.974550 1.75282400 1.00000 0.00000             
Pb    core 13.243610 -10.29837 -7.164337 1.75282400 1.00000 0.00000             
S     core 13.246572 -10.30347 19.164226 -1.7528240 1.00000 0.00000             
S     core 13.077562 -13.48341 15.974052 -1.7528240 1.00000 0.00000             
S     core 10.359771 -10.46245 16.322837 -1.7528240 1.00000 0.00000             
Pb    core 10.354770 -10.30201 19.200897 1.75282400 1.00000 0.00000             
Pb    core 13.266983 -10.47384 16.297663 1.75282400 1.00000 0.00000             
Pb    core 10.252965 -13.41986 16.006547 1.75282400 1.00000 0.00000             
S     core 13.246572 19.164226 -10.30347 -1.7528240 1.00000 0.00000             
S     core 10.359771 16.322837 -10.46245 -1.7528240 1.00000 0.00000             
S     core 13.077562 15.974052 -13.48341 -1.7528240 1.00000 0.00000             
Pb    core 10.354770 19.200897 -10.30201 1.75282400 1.00000 0.00000             
Pb    core 13.266983 16.297663 -10.47384 1.75282400 1.00000 0.00000             
Pb    core 10.252965 16.006547 -13.41986 1.75282400 1.00000 0.00000             
S     core 10.254698 16.011233 25.419661 -1.7528240 1.00000 0.00000             
S     core 13.267867 16.295182 22.468136 -1.7528240 1.00000 0.00000             
S     core 10.353352 19.205460 22.301929 -1.7528240 1.00000 0.00000             
Pb    core 13.079765 15.969686 25.473474 1.75282400 1.00000 0.00000             
Pb    core 13.243610 19.159473 22.293510 1.75282400 1.00000 0.00000             
Pb    core 10.359887 16.324777 22.459750 1.75282400 1.00000 0.00000             
S     core 13.077562 25.478552 -3.978915 -1.7528240 1.00000 0.00000             
S     core 10.359771 22.457586 -4.327701 -1.7528240 1.00000 0.00000             
S     core 13.246572 22.298606 -7.169089 -1.7528240 1.00000 0.00000             
Pb    core 10.252965 25.415000 -4.011410 1.75282400 1.00000 0.00000             
Pb    core 13.266983 22.468984 -4.302527 1.75282400 1.00000 0.00000             
Pb    core 10.354770 22.297148 -7.205761 1.75282400 1.00000 0.00000             
S     core 10.353352 22.301929 19.205460 -1.7528240 1.00000 0.00000             
S     core 13.267867 22.468136 16.295182 -1.7528240 1.00000 0.00000             
S     core 10.254698 25.419661 16.011233 -1.7528240 1.00000 0.00000             
Pb    core 13.243610 22.293510 19.159473 1.75282400 1.00000 0.00000             
Pb    core 13.079765 25.473474 15.969686 1.75282400 1.00000 0.00000             
Pb    core 10.359887 22.459750 16.324777 1.75282400 1.00000 0.00000             
S     core 19.205460 1.6417835 -10.30679 -1.7528240 1.00000 0.00000             
S     core 16.295182 -1.272731 -10.47299 -1.7528240 1.00000 0.00000             
S     core 16.011233 1.7404379 -13.42452 -1.7528240 1.00000 0.00000             
Pb    core 16.324777 1.6352484 -10.46461 1.75282400 1.00000 0.00000             
Pb    core 19.159473 -1.248474 -10.29837 1.75282400 1.00000 0.00000             
Pb    core 15.969686 -1.084629 -13.47833 1.75282400 1.00000 0.00000             
S     core 15.974052 -1.082426 25.478552 -1.7528240 1.00000 0.00000             
S     core 19.164226 -1.251436 22.298606 -1.7528240 1.00000 0.00000             
S     core 16.322837 1.6353646 22.457586 -1.7528240 1.00000 0.00000             
Pb    core 16.006547 1.7421706 25.415000 1.75282400 1.00000 0.00000             
Pb    core 19.200897 1.6403660 22.297148 1.75282400 1.00000 0.00000             
Pb    core 16.297663 -1.271847 22.468984 1.75282400 1.00000 0.00000             
S     core 19.379596 -4.414193 -4.414193 -1.7528240 1.00000 0.00000             
S     core 16.409329 -7.384460 -4.414193 -1.7528240 1.00000 0.00000             
S     core 19.729890 -7.734754 -7.734754 -1.7528240 1.00000 0.00000             
S     core 16.409329 -4.414193 -7.384460 -1.7528240 1.00000 0.00000             
Pb    core 16.402168 -4.407032 -4.407032 1.75282400 1.00000 0.00000             
Pb    core 19.369898 -7.374762 -4.195014 1.75282400 1.00000 0.00000             
Pb    core 19.369898 -4.195014 -7.374762 1.75282400 1.00000 0.00000             
Pb    core 16.190151 -7.374762 -7.374762 1.75282400 1.00000 0.00000             
S     core 19.367253 -4.197139 19.367253 -1.7528240 1.00000 0.00000             
S     core 16.192275 -7.372117 19.367253 -1.7528240 1.00000 0.00000             
S     core 19.367253 -7.372117 16.192275 -1.7528240 1.00000 0.00000             
S     core 16.400276 -4.405139 16.400276 -1.7528240 1.00000 0.00000             
Pb    core 16.407206 -4.412070 19.376678 1.75282400 1.00000 0.00000             