# 
# Keywords:
# 
md conv  
# 
# Options:
# 
vectors 
    15.597700    0.00000    0.00000
   -7.798850   13.508004    0.00000
    0.00000    0.00000   11.277500
fractional 
N     core 0.9023092 0.9504759 0.4069064 -0.7875000 1.00000 0.00000             
N     core 0.9977713 0.6422228 0.4222319 -0.7875000 1.00000 0.00000             
N     core 0.4592098 0.5404391 0.9050264 -0.7875000 1.00000 0.00000             
N     core 0.9988129 0.9727396 0.7669162 -0.7875000 1.00000 0.00000             
N     core 0.1768793 0.3323945 0.8561739 -0.7875000 1.00000 0.00000             
N     core 0.0075527 0.2665671 0.7145107 -0.7875000 1.00000 0.00000             
N     core 0.5103595 0.5090901 0.1350961 -0.7875000 1.00000 0.00000             
N     core 0.7412996 0.1303309 0.8911404 -0.7875000 1.00000 0.00000             
N     core 0.2145264 0.1052951 0.7403876 -0.7875000 1.00000 0.00000             
N     core 0.6800261 0.9695612 0.7495290 -0.7875000 1.00000 0.00000             
N     core 0.7742807 0.3563087 0.2347642 -0.7875000 1.00000 0.00000             
N     core 0.9791759 0.0618507 0.9832236 -0.7875000 1.00000 0.00000             
N     core 0.2060365 0.6636890 0.9777317 -0.7875000 1.00000 0.00000             
N     core 0.2566994 0.7193543 0.7489670 -0.7875000 1.00000 0.00000             
N     core 0.6282289 0.7237463 0.1862773 -0.7875000 1.00000 0.00000             
N     core 0.1005457 0.6275344 0.2290201 -0.7875000 1.00000 0.00000             
N     core 0.7756534 0.6671886 0.1712164 -0.7875000 1.00000 0.00000             
N     core 0.0391905 0.6920945 0.0166476 -0.7875000 1.00000 0.00000             
N     core 0.7031397 0.8849676 0.3625090 -0.7875000 1.00000 0.00000             
N     core 0.9338427 0.8405288 0.3108109 -0.7875000 1.00000 0.00000             
N     core 0.3908063 0.6718434 0.8270240 -0.7875000 1.00000 0.00000             
N     core 0.1011152 0.2536924 0.3711378 -0.7875000 1.00000 0.00000             
N     core 0.8784718 0.0608027 0.7360560 -0.7875000 1.00000 0.00000             
N     core 0.3612292 0.0600822 0.1311578 -0.7875000 1.00000 0.00000             
N     core 0.5843554 0.7677404 0.9483218 -0.7875000 1.00000 0.00000             
N     core 0.3942022 0.3799554 0.3341767 -0.7875000 1.00000 0.00000             
N     core 0.7963947 0.9680969 0.5400640 -0.7875000 1.00000 0.00000             
N     core 0.3408389 0.7770050 0.2134009 -0.7875000 1.00000 0.00000             
N     core 0.0277569 0.4547487 0.9102778 -0.7875000 1.00000 0.00000             
N     core 0.3752714 0.1965063 0.2942576 -0.7875000 1.00000 0.00000             
N     core 0.1088857 0.8892087 0.7399643 -0.7875000 1.00000 0.00000             
N     core 0.4498050 0.0352315 0.8965042 -0.7875000 1.00000 0.00000             
N     core 0.8907844 0.6910516 0.9789434 -0.7875000 1.00000 0.00000             
N     core 0.1382371 0.4903782 0.3418154 -0.7875000 1.00000 0.00000             
N     core 0.7585522 0.9460200 0.9503076 -0.7875000 1.00000 0.00000             
N     core 0.5361560 0.2995829 0.1899585 -0.7875000 1.00000 0.00000             
N     core 0.2672270 0.2227888 0.9433057 -0.7875000 1.00000 0.00000             
N     core 0.3212492 0.6203502 0.3324797 -0.7875000 1.00000 0.00000             
N     core 0.6692799 0.3082642 0.0640462 -0.7875000 1.00000 0.00000             
N     core 0.4368636 0.3812516 0.8941429 -0.7875000 1.00000 0.00000             
N     core 0.3664238 0.7971745 0.4617958 -0.7875000 1.00000 0.00000             
N     core 0.2074999 0.8222669 0.1410265 -0.7875000 1.00000 0.00000             
N     core 0.8136237 0.3140496 0.4877339 -0.7875000 1.00000 0.00000             
N     core 0.6336133 0.3775805 0.8594960 -0.7875000 1.00000 0.00000             
N     core 0.0335732 0.0093471 0.1870126 -0.7875000 1.00000 0.00000             
N     core 0.9467421 0.4144015 0.6865306 -0.7875000 1.00000 0.00000             
N     core 0.2016543 0.0041729 0.2736230 -0.7875000 1.00000 0.00000             
N     core 0.7274883 0.8351009 0.7511194 -0.7875000 1.00000 0.00000             
N     core 0.7514911 0.7539826 0.9701412 -0.7875000 1.00000 0.00000             
N     core 0.5149466 0.5619211 0.5187036 -0.7875000 1.00000 0.00000             
N     core 0.2179209 0.2095544 0.2252460 -0.7875000 1.00000 0.00000             
N     core 0.5836887 0.2153774 0.8215119 -0.7875000 1.00000 0.00000             
N     core 0.1990566 0.7555051 0.3904211 -0.7875000 1.00000 0.00000             
N     core 0.5154629 0.4508441 0.6847150 -0.7875000 1.00000 0.00000             
N     core 0.4055778 0.9725498 0.5062132 -0.7875000 1.00000 0.00000             
N     core 0.5751660 0.9325879 0.9496732 -0.7875000 1.00000 0.00000             
N     core 0.3928853 0.5946829 0.1376893 -0.7875000 1.00000 0.00000             
N     core 0.6554930 0.4778406 0.2585880 -0.7875000 1.00000 0.00000             
N     core 0.1753539 0.8009695 0.8732152 -0.7875000 1.00000 0.00000             
N     core 0.7723298 0.4336998 0.6830736 -0.7875000 1.00000 0.00000             
N     core 0.2992124 0.9167513 0.7161813 -0.7875000 1.00000 0.00000             
N     core 0.2918188 0.0814218 0.5238592 -0.7875000 1.00000 0.00000             
N     core 0.8582098 0.6272218 0.6227169 -0.7875000 1.00000 0.00000             
N     core 0.2280243 0.4132744 0.2211166 -0.7875000 1.00000 0.00000             
N     core 0.4622369 0.7175194 0.5244480 -0.7875000 1.00000 0.00000             
N     core 0.9219034 0.2392535 0.3020404 -0.7875000 1.00000 0.00000             
N     core 0.3036006 0.6230846 0.6088550 -0.7875000 1.00000 0.00000             
N     core 0.0112020 0.8787207 0.9679187 -0.7875000 1.00000 0.00000             
N     core 0.9685297 0.7228041 0.1961712 -0.7875000 1.00000 0.00000             
N     core 0.9397728 0.1638438 0.5196229 -0.7875000 1.00000 0.00000             
N     core 0.6363357 0.3192913 0.3732790 -0.7875000 1.00000 0.00000             
N     core 0.5600482 0.1604268 0.2090123 -0.7875000 1.00000 0.00000             
N     core 0.7579921 0.0984449 0.3864476 -0.7875000 1.00000 0.00000             
N     core 0.5304263 0.6802067 0.7289827 -0.7875000 1.00000 0.00000             
N     core 0.4049978 0.2548571 0.5703254 -0.7875000 1.00000 0.00000             
N     core 0.4916426 0.9744123 0.1077233 -0.7875000 1.00000 0.00000             
N     core 0.6541733 0.7632984 0.5233726 -0.7875000 1.00000 0.00000             
N     core 0.2294074 0.5055616 0.9647005 -0.7875000 1.00000 0.00000             
N     core 0.3826859 0.8397020 0.8857172 -0.7875000 1.00000 0.00000             
N     core 0.6949494 0.6532144 0.6475433 -0.7875000 1.00000 0.00000             
N     core 0.2287807 0.9110779 0.5085970 -0.7875000 1.00000 0.00000             
N     core 0.6677371 0.9079537 0.1360516 -0.7875000 1.00000 0.00000             
N     core 0.0782788 0.9175591 0.4966759 -0.7875000 1.00000 0.00000             
N     core 0.5892292 0.2979272 0.6179848 -0.7875000 1.00000 0.00000             
N     core 0.0653779 0.4538658 0.1049766 -0.7875000 1.00000 0.00000             
N     core 0.5901179 0.0728181 0.7221431 -0.7875000 1.00000 0.00000             
N     core 0.4793859 0.1519960 0.4445238 -0.7875000 1.00000 0.00000             
N     core 0.8476892 0.8136204 0.5365462 -0.7875000 1.00000 0.00000             
N     core 0.8390004 0.6567377 0.3995535 -0.7875000 1.00000 0.00000             
N     core 0.8218173 0.8793555 0.1575230 -0.7875000 1.00000 0.00000             
N     core 0.1577485 0.4720076 0.7202961 -0.7875000 1.00000 0.00000             
N     core 0.8526430 0.3309148 0.0283182 -0.7875000 1.00000 0.00000             
N     core 0.8687555 0.0831443 0.1550751 -0.7875000 1.00000 0.00000             
N     core 0.4614778 0.8675208 0.6631456 -0.7875000 1.00000 0.00000             
N     core 0.1146732 0.7456085 0.6186249 -0.7875000 1.00000 0.00000             
N     core 0.4526377 0.2055682 0.9705430 -0.7875000 1.00000 0.00000             
N     core 0.1552652 0.0603378 0.0370861 -0.7875000 1.00000 0.00000             
N     core 0.6300408 0.1497484 0.4820198 -0.7875000 1.00000 0.00000             
N     core 0.6070495 0.4499992 0.5108289 -0.7875000 1.00000 0.00000             
N     core 0.9695781 0.4582000 0.3498693 -0.7875000 1.00000 0.00000             
N     core 0.3265882 0.4556182 0.7296951 -0.7875000 1.00000 0.00000             
N     core 0.9095300 0.5489342 0.8443245 -0.7875000 1.00000 0.00000             
N     core 0.1051556 0.2409926 0.0862163 -0.7875000 1.00000 0.00000             
N     core 0.4002635 0.1010919 0.6912766 -0.7875000 1.00000 0.00000             
N     core 0.3037856 0.3983636 0.0284809 -0.7875000 1.00000 0.00000             
N     core 0.4178780 0.3392903 0.1047580 -0.7875000 1.00000 0.00000             
N     core 0.8243752 0.5142588 0.0811329 -0.7875000 1.00000 0.00000             
N     core 0.0355501 0.3649535 0.5165200 -0.7875000 1.00000 0.00000             
N     core 0.1801614 0.2920965 0.6032881 -0.7875000 1.00000 0.00000             
N     core 0.1257440 0.5826707 0.5372270 -0.7875000 1.00000 0.00000             
N     core 0.6371393 0.4779556 0.0493319 -0.7875000 1.00000 0.00000             
N     core 0.0721474 0.1424688 0.7723053 -0.7875000 1.00000 0.00000             
N     core 0.8036185 0.4766092 0.4219402 -0.7875000 1.00000 0.00000             
N     core 0.8803271 0.7700514 0.7711104 -0.7875000 1.00000 0.00000             
N     core 0.0550396 0.0926849 0.5475625 -0.7875000 1.00000 0.00000             
N     core 0.7836605 0.1558889 0.6284135 -0.7875000 1.00000 0.00000             
N     core 0.3326240 0.9243789 0.2971357 -0.7875000 1.00000 0.00000             
N     core 0.3146102 0.4672464 0.4528070 -0.7875000 1.00000 0.00000             
N     core 0.4883092 0.6058174 0.3342717 -0.7875000 1.00000 0.00000             
N     core 0.9237354 0.2291428 0.0167594 -0.7875000 1.00000 0.00000             
N     core 0.2719087 0.0275235 0.9037889 -0.7875000 1.00000 0.00000             
N     core 0.0906911 0.5921816 0.7539446 -0.7875000 1.00000 0.00000             
N     core 0.7442414 0.2775538 0.7187194 -0.7875000 1.00000 0.00000             
N     core 0.7268128 0.1335369 0.1455275 -0.7875000 1.00000 0.00000             
N     core 0.5047832 0.7829506 0.1811747 -0.7875000 1.00000 0.00000             
N     core 0.7522956 0.5796195 0.8360319 -0.7875000 1.00000 0.00000             
N     core 0.5276412 0.9998577 0.3104874 -0.7875000 1.00000 0.00000             
N     core 0.6033052 0.9387085 0.5295435 -0.7875000 1.00000 0.00000             
Si    core 0.0605751 0.5000209 0.2386596 1.05000000 1.00000 0.00000             
Si    core 0.7944748 0.3899015 0.0857017 1.05000000 1.00000 0.00000             
Si    core 0.1563849 0.2813563 0.2290391 1.05000000 1.00000 0.00000             
Si    core 0.6210375 0.8231096 0.2496833 1.05000000 1.00000 0.00000             
Si    core 0.7094292 0.9818968 0.4458669 1.05000000 1.00000 0.00000             
Si    core 0.9292359 0.0490686 0.5005649 1.05000000 1.00000 0.00000             
Si    core 0.8245372 0.7182399 0.6337619 1.05000000 1.00000 0.00000             
Si    core 0.0954986 0.0656095 0.6821496 1.05000000 1.00000 0.00000             
Si    core 0.8069147 0.7003798 0.8901609 1.05000000 1.00000 0.00000             
Si    core 0.0100927 0.6553171 0.2700689 1.05000000 1.00000 0.00000             
Si    core 0.4199007 0.6681251 0.6747610 1.05000000 1.00000 0.00000             
Si    core 0.6026346 0.5425384 0.5892967 1.05000000 1.00000 0.00000             
Si    core 0.4924400 0.6622554 0.8791828 1.05000000 1.00000 0.00000             
Si    core 0.8296064 0.3691067 0.6276773 1.05000000 1.00000 0.00000             
Si    core 0.7732335 0.9527096 0.6928775 1.05000000 1.00000 0.00000             
Si    core 0.3269913 0.1560048 0.6620783 1.05000000 1.00000 0.00000             
Si    core 0.1899981 0.5939072 0.6725858 1.05000000 1.00000 0.00000             
Si    core 0.7409364 0.7505451 0.1243540 1.05000000 1.00000 0.00000             
Si    core 0.0583046 0.4750030 0.4561091 1.05000000 1.00000 0.00000             
Si    core 0.6786611 0.4452925 0.3965372 1.05000000 1.00000 0.00000             
Si    core 0.9974711 0.8658550 0.8105713 1.05000000 1.00000 0.00000             
Si    core 0.4323447 0.4889160 0.4045468 1.05000000 1.00000 0.00000             
Si    core 0.1360325 0.5335978 0.9894920 1.05000000 1.00000 0.00000             
Si    core 0.7719380 0.8545096 0.4644721 1.05000000 1.00000 0.00000             
Si    core 0.9182737 0.5955620 0.9853184 1.05000000 1.00000 0.00000             
Si    core 0.4335651 0.4569819 0.7840796 1.05000000 1.00000 0.00000             
Si    core 0.9603371 0.0517804 0.8314422 1.05000000 1.00000 0.00000             
Si    core 0.9753521 0.3581952 0.0148454 1.05000000 1.00000 0.00000             
Si    core 0.8169933 0.1394883 0.2477105 1.05000000 1.00000 0.00000             
Si    core 0.4249357 0.9072338 0.2309773 1.05000000 1.00000 0.00000             
Si    core 0.2029796 0.2849934 0.9811260 1.05000000 1.00000 0.00000             
Si    core 0.7963283 0.2014435 0.0172810 1.05000000 1.00000 0.00000             
Si    core 0.2813367 0.4103358 0.5889487 1.05000000 1.00000 0.00000             
Si    core 0.4514815 0.1693222 0.2058761 1.05000000 1.00000 0.00000             
Si    core 0.5972256 0.2405221 0.4917045 1.05000000 1.00000 0.00000             
Si    core 0.1649750 0.0801898 0.1938196 1.05000000 1.00000 0.00000             
Si    core 0.8241579 0.5492854 0.7445034 1.05000000 1.00000 0.00000             
Si    core 0.5125533 0.0588355 0.4330169 1.05000000 1.00000 0.00000             
Si    core 0.7915735 0.9657117 0.1000908 1.05000000 1.00000 0.00000             
Si    core 0.4314059 0.4479285 0.0176860 1.05000000 1.00000 0.00000             
Si    core 0.1670356 0.7500042 0.0111592 1.05000000 1.00000 0.00000             
Si    core 0.2628347 0.9501113 0.1952179 1.05000000 1.00000 0.00000             
Si    core 0.9971136 0.7768070 0.0534512 1.05000000 1.00000 0.00000             
Si    core 0.7373034 0.5431261 0.1443039 1.05000000 1.00000 0.00000             
Si    core 0.1094804 0.6800662 0.4931024 1.05000000 1.00000 0.00000             
Si    core 0.6654847 0.3257141 0.7420402 1.05000000 1.00000 0.00000             
Si    core 0.3371897 0.6741967 0.4687166 1.05000000 1.00000 0.00000             
Si    core 0.5192127 0.3559578 0.6049065 1.05000000 1.00000 0.00000             
Si    core 0.2176210 0.9195518 0.8221777 1.05000000 1.00000 0.00000             
Si    core 0.1397736 0.2080665 0.4862734 1.05000000 1.00000 0.00000             
Si    core 0.0274628 0.9878678 0.0341156 1.05000000 1.00000 0.00000             
Si    core 0.7153303 0.1607072 0.7515875 1.05000000 1.00000 0.00000             
Si    core 0.5964926 0.0730781 0.1836069 1.05000000 1.00000 0.00000             
Si    core 0.3822569 0.6913194 0.2066208 1.05000000 1.00000 0.00000             
Si    core 0.3876576 0.1835597 0.4431400 1.05000000 1.00000 0.00000             
Si    core 0.6482843 0.7316616 0.6719940 1.05000000 1.00000 0.00000             
Si    core 0.6946078 0.0042613 0.8976148 1.05000000 1.00000 0.00000             
Si    core 0.3552243 0.8454570 0.7359393 1.05000000 1.00000 0.00000             
Si    core 0.7083584 0.8235460 0.9021810 1.05000000 1.00000 0.00000             
Si    core 0.5822498 0.9649216 0.6742919 1.05000000 1.00000 0.00000             
Si    core 0.3475931 0.2839948 0.2368456 1.05000000 1.00000 0.00000             
Si    core 0.4716767 0.9466688 0.9577408 1.05000000 1.00000 0.00000             
Si    core 0.3929487 0.2728353 0.9701313 1.05000000 1.00000 0.00000             
Si    core 0.9986026 0.2641143 0.4193359 1.05000000 1.00000 0.00000             
Si    core 0.5620544 0.8408158 0.0467021 1.05000000 1.00000 0.00000             
Si    core 0.3327397 0.0002562 0.5959445 1.05000000 1.00000 0.00000             
Si    core 0.3047054 0.8663122 0.4382293 1.05000000 1.00000 0.00000             
Si    core 0.3838417 0.0758777 0.9795667 1.05000000 1.00000 0.00000             
Si    core 0.3131121 0.7106824 0.8879933 1.05000000 1.00000 0.00000             
Si    core 0.0381722 0.3830100 0.6699342 1.05000000 1.00000 0.00000             
Si    core 0.8409861 0.3942267 0.3654809 1.05000000 1.00000 0.00000             
Si    core 0.2158277 0.7377863 0.2408860 1.05000000 1.00000 0.00000             
Si    core 0.9218805 0.9374751 0.2556176 1.05000000 1.00000 0.00000             
Si    core 0.9762775 0.1591284 0.0650566 1.05000000 1.00000 0.00000             
Si    core 0.8977615 0.1688394 0.6636919 1.05000000 1.00000 0.00000             
Si    core 0.5829959 0.2720630 0.9518592 1.05000000 1.00000 0.00000             
Si    core 0.9794722 0.4965616 0.8033064 1.05000000 1.00000 0.00000             
Si    core 0.9575331 0.8781354 0.4569408 1.05000000 1.00000 0.00000             
Si    core 0.5474484 0.4180373 0.1653398 1.05000000 1.00000 0.00000             
Si    core 0.7539500 0.1833269 0.4864072 1.05000000 1.00000 0.00000             
Si    core 0.1148684 0.8543699 0.5932690 1.05000000 1.00000 0.00000             
Si    core 0.8786818 0.5932407 0.4834448 1.05000000 1.00000 0.00000             
Si    core 0.2353643 0.4581668 0.8246808 1.05000000 1.00000 0.00000             
Si    core 0.8701929 0.7192570 0.2722307 1.05000000 1.00000 0.00000             
Si    core 0.6466896 0.4875029 0.8993499 1.05000000 1.00000 0.00000             
Si    core 0.2159855 0.1005060 0.9000594 1.05000000 1.00000 0.00000             
Si    core 0.5001401 0.1027614 0.7657321 1.05000000 1.00000 0.00000             
Si    core 0.6420851 0.2886773 0.2213522 1.05000000 1.00000 0.00000             
Si    core 0.1392945 0.7170086 0.7575628 1.05000000 1.00000 0.00000             
Si    core 0.2484175 0.4898502 0.3429593 1.05000000 1.00000 0.00000             
Si    core 0.2831501 0.4863618 0.0930816 1.05000000 1.00000 0.00000             
Si    core 0.1141064 0.2615027 0.7376103 1.05000000 1.00000 0.00000             
Si    core 0.5128556 0.6129252 0.1845982 1.05000000 1.00000 0.00000             
Si    core 0.5409746 0.6765086 0.4613874 1.05000000 1.00000 0.00000             
Si    core 0.4840201 0.8413162 0.5186932 1.05000000 1.00000 0.00000             
Si    core 0.1951181 0.9899239 0.4282037 1.05000000 1.00000 0.00000             
totalenergy         -1515.6764327265 eV
species   2
N      core   -0.787500                  
Si     core    1.050000                  
buck     
Si    core Si    core  105.190000     0.591214  0.000000      0.00 10.00
buck     
N     core Si    core  1319.23000     0.266735  0.000000      0.00 10.00
buck     
N     core N     core  1168.10000     0.344070  0.000000      0.00 10.00
qtaper     
N     core Si    core     -20.402300        2.60000
damped_dispersion     
N     core N     core   460.000000     0.000000     0.000000 &
  2.86875   0.00000   0.00000   0.000  10.000
nobond N     core Si    core
nobond N     core N     core
nobond Si    core Si    core
dump Si3N4_Results4000K_NoSW.res                                 
