# 
# Keywords:
# 
md conv  
# 
# Options:
# 
vectors 
   15.597700    0.000000    0.000000
   -7.798850   13.508004    0.000000
    0.000000    0.000000   11.277500
cartesian
N     core 0.1320444 5.3980234 0.3310950 -0.7875000 1.00000 0.00000             
N     core 1.9804578 13.313893 2.0671537 -0.7875000 1.00000 0.00000             
N     core 8.0064834 0.9198073 7.4761909 -0.7875000 1.00000 0.00000             
N     core 7.0735959 10.889882 3.0985335 -0.7875000 1.00000 0.00000             
N     core -0.291373 6.4754768 2.8622194 -0.7875000 1.00000 0.00000             
N     core 0.3562371 11.041061 0.6642109 -0.7875000 1.00000 0.00000             
N     core 5.1120959 11.163125 5.4403790 -0.7875000 1.00000 0.00000             
N     core -1.914787 6.2148707 7.5151991 -0.7875000 1.00000 0.00000             
N     core 12.427359 0.7464410 0.8797869 -0.7875000 1.00000 0.00000             
N     core 7.7345433 12.121883 5.4150338 -0.7875000 1.00000 0.00000             
N     core -2.001346 7.3787171 0.6922106 -0.7875000 1.00000 0.00000             
N     core -3.216236 8.9118589 6.3181303 -0.7875000 1.00000 0.00000             
N     core 3.0005997 10.316883 0.8426138 -0.7875000 1.00000 0.00000             
N     core 9.0226371 8.7404488 3.3650158 -0.7875000 1.00000 0.00000             
N     core 2.8012826 2.1650840 7.9827802 -0.7875000 1.00000 0.00000             
N     core 5.1227595 6.4276140 0.5922247 -0.7875000 1.00000 0.00000             
N     core -0.622673 13.217111 1.9048640 -0.7875000 1.00000 0.00000             
N     core 8.5186958 10.491985 7.6814124 -0.7875000 1.00000 0.00000             
N     core -3.877811 8.2866358 3.6244462 -0.7875000 1.00000 0.00000             
N     core 10.570496 6.9487859 10.953633 -0.7875000 1.00000 0.00000             
N     core -2.951536 5.5855953 10.277977 -0.7875000 1.00000 0.00000             
N     core 5.4859429 1.9161158 2.8536564 -0.7875000 1.00000 0.00000             
N     core 3.9073803 2.0834850 5.3052240 -0.7875000 1.00000 0.00000             
N     core 4.8439701 11.932432 2.1563567 -0.7875000 1.00000 0.00000             
N     core 7.8966093 2.3091663 5.1432730 -0.7875000 1.00000 0.00000             
N     core 9.2722980 8.2027620 6.7073414 -0.7875000 1.00000 0.00000             
N     core 7.0915927 13.289854 0.7275856 -0.7875000 1.00000 0.00000             
N     core 0.7336903 1.7036169 4.3627895 -0.7875000 1.00000 0.00000             
N     core -5.430111 13.004826 4.5618458 -0.7875000 1.00000 0.00000             
N     core 7.0794583 7.7520658 8.7255768 -0.7875000 1.00000 0.00000             
N     core 0.4101127 8.3921306 1.5480145 -0.7875000 1.00000 0.00000             
N     core -1.856470 3.9676597 8.5377995 -0.7875000 1.00000 0.00000             
N     core 9.1690340 9.2567086 9.6228972 -0.7875000 1.00000 0.00000             
N     core 1.5237016 1.5205470 10.011382 -0.7875000 1.00000 0.00000             
N     core 8.9667751 5.9084380 9.0178213 -0.7875000 1.00000 0.00000             
N     core 0.2609739 12.841273 5.1043490 -0.7875000 1.00000 0.00000             
N     core -4.227501 7.8357935 8.5560473 -0.7875000 1.00000 0.00000             
N     core 9.1707303 5.2147915 6.1538167 -0.7875000 1.00000 0.00000             
N     core 0.0851656 6.9774943 8.9915354 -0.7875000 1.00000 0.00000             
N     core 11.558112 5.6716024 1.8491527 -0.7875000 1.00000 0.00000             
N     core -1.312832 10.760519 6.0457230 -0.7875000 1.00000 0.00000             
N     core 0.6410522 2.1772086 1.1851706 -0.7875000 1.00000 0.00000             
N     core 3.1113721 6.5947214 2.2084229 -0.7875000 1.00000 0.00000             
N     core 12.686278 1.4243128 7.6024439 -0.7875000 1.00000 0.00000             
N     core 3.8882917 3.4531810 10.092375 -0.7875000 1.00000 0.00000             
N     core 11.657483 2.7070692 10.107996 -0.7875000 1.00000 0.00000             
N     core 12.249630 0.5720003 5.1371695 -0.7875000 1.00000 0.00000             
N     core -3.018992 10.894436 8.4751894 -0.7875000 1.00000 0.00000             
N     core 7.3470942 7.9033070 1.9058831 -0.7875000 1.00000 0.00000             
N     core 3.6070487 4.7779841 6.8862269 -0.7875000 1.00000 0.00000             
N     core 6.5942645 4.6757864 4.9844040 -0.7875000 1.00000 0.00000             
N     core 5.9077657 1.7932801 9.5986814 -0.7875000 1.00000 0.00000             
N     core 11.324763 3.0059543 1.2740633 -0.7875000 1.00000 0.00000             
N     core 10.386379 0.7934374 9.0182989 -0.7875000 1.00000 0.00000             
N     core 0.7382776 11.221713 7.5819063 -0.7875000 1.00000 0.00000             
N     core 14.802643 0.0312335 3.4721581 -0.7875000 1.00000 0.00000             
N     core -3.640282 9.4294551 10.763128 -0.7875000 1.00000 0.00000             
N     core 2.5641794 11.612206 9.7574174 -0.7875000 1.00000 0.00000             
N     core -2.281910 12.220948 10.647366 -0.7875000 1.00000 0.00000             
N     core 12.635276 3.4160325 5.9070178 -0.7875000 1.00000 0.00000             
N     core 2.8248131 1.7575617 2.7093842 -0.7875000 1.00000 0.00000             
N     core 3.4983067 11.511913 7.0822757 -0.7875000 1.00000 0.00000             
N     core 4.3530211 7.3326568 8.6817459 -0.7875000 1.00000 0.00000             
N     core 1.8065688 5.3092957 4.5112406 -0.7875000 1.00000 0.00000             
N     core 9.9427119 6.2958770 3.6676014 -0.7875000 1.00000 0.00000             
N     core 0.7951373 4.1064064 6.6930367 -0.7875000 1.00000 0.00000             
N     core 5.8914631 5.0762096 8.8596166 -0.7875000 1.00000 0.00000             
N     core -0.725688 3.8558723 4.6462785 -0.7875000 1.00000 0.00000             
N     core 4.0563691 1.3146850 0.2937926 -0.7875000 1.00000 0.00000             
N     core 8.0585255 2.2521751 2.1706229 -0.7875000 1.00000 0.00000             
N     core 9.4091668 1.1393557 11.257761 -0.7875000 1.00000 0.00000             
N     core 2.3690423 9.1099930 8.0393111 -0.7875000 1.00000 0.00000             
N     core 3.3088708 4.4430996 1.2574705 -0.7875000 1.00000 0.00000             
N     core 3.9103195 0.0011083 9.0826942 -0.7875000 1.00000 0.00000             
N     core 10.123011 1.6352405 6.4894076 -0.7875000 1.00000 0.00000             
N     core -1.184511 8.7316365 4.2777034 -0.7875000 1.00000 0.00000             
N     core -0.658540 8.9090511 7.6676006 -0.7875000 1.00000 0.00000             
N     core 1.5827553 9.4308614 5.6339769 -0.7875000 1.00000 0.00000             
N     core 5.5591195 2.5848418 7.0479383 -0.7875000 1.00000 0.00000             
N     core 6.8025755 9.1711783 5.2555701 -0.7875000 1.00000 0.00000             
N     core -1.705614 11.823681 3.3902441 -0.7875000 1.00000 0.00000             
N     core 11.919793 5.2234817 4.4145164 -0.7875000 1.00000 0.00000             
N     core -1.674081 13.164117 7.8130657 -0.7875000 1.00000 0.00000             
N     core -4.698611 10.704487 2.0146297 -0.7875000 1.00000 0.00000             
N     core 6.4531954 8.7521804 10.782092 -0.7875000 1.00000 0.00000             
N     core 0.8322558 11.082852 3.2773948 -0.7875000 1.00000 0.00000             
N     core 0.2206618 12.663787 9.6719333 -0.7875000 1.00000 0.00000             
N     core 3.1997369 9.3576365 3.4055756 -0.7875000 1.00000 0.00000             
N     core 8.0019686 6.9980115 4.7541380 -0.7875000 1.00000 0.00000             
N     core 4.9346442 8.8219158 2.0402744 -0.7875000 1.00000 0.00000             
N     core -5.933789 13.116670 1.0018603 -0.7875000 1.00000 0.00000             
N     core 5.5749280 9.9936201 8.1757347 -0.7875000 1.00000 0.00000             
N     core 2.4007870 6.5507102 10.370078 -0.7875000 1.00000 0.00000             
N     core 13.133026 2.4952170 3.2325380 -0.7875000 1.00000 0.00000             
N     core 4.0474134 4.2516423 3.6519200 -0.7875000 1.00000 0.00000             
N     core 13.590976 0.8757592 9.6194806 -0.7875000 1.00000 0.00000             
N     core 9.4699869 0.9461974 4.1267531 -0.7875000 1.00000 0.00000             
N     core 5.4562469 0.1400986 4.7290394 -0.7875000 1.00000 0.00000             
N     core -1.124738 9.7213926 10.397306 -0.7875000 1.00000 0.00000             
N     core -1.644600 3.4690446 0.4899765 -0.7875000 1.00000 0.00000             
N     core 6.3301063 4.6631889 2.4085552 -0.7875000 1.00000 0.00000             
N     core -4.024379 12.549247 6.3811779 -0.7875000 1.00000 0.00000             
N     core 5.9538221 6.5415783 6.4739643 -0.7875000 1.00000 0.00000             
N     core 1.4291263 8.8702806 10.261695 -0.7875000 1.00000 0.00000             
N     core 9.5933274 4.2893364 0.2771170 -0.7875000 1.00000 0.00000             
N     core 5.0934712 11.885326 10.267138 -0.7875000 1.00000 0.00000             
N     core 7.5099058 5.8560847 10.927388 -0.7875000 1.00000 0.00000             
N     core -5.232144 11.445598 10.430893 -0.7875000 1.00000 0.00000             
N     core 5.1301273 6.9574003 3.9827253 -0.7875000 1.00000 0.00000             
N     core -6.241575 12.696758 8.2295577 -0.7875000 1.00000 0.00000             
N     core 0.8880496 4.1508918 9.3455679 -0.7875000 1.00000 0.00000             
N     core 9.9566998 3.8470842 3.4773909 -0.7875000 1.00000 0.00000             
N     core 9.4119298 3.4287751 8.2665989 -0.7875000 1.00000 0.00000             
N     core -3.732428 10.601797 4.2075034 -0.7875000 1.00000 0.00000             
N     core 8.6096150 10.188361 0.9128327 -0.7875000 1.00000 0.00000             
N     core 5.8303048 3.6397659 0.3128501 -0.7875000 1.00000 0.00000             
N     core 4.0487255 9.2783375 10.015384 -0.7875000 1.00000 0.00000             
N     core 2.7386786 11.983919 4.4726967 -0.7875000 1.00000 0.00000             
N     core 7.6263331 11.066938 9.9243538 -0.7875000 1.00000 0.00000             
N     core 4.1595110 8.6241108 6.1021664 -0.7875000 1.00000 0.00000             
N     core -1.953130 10.353554 1.5692496 -0.7875000 1.00000 0.00000             
N     core 6.7333895 12.593768 7.9239837 -0.7875000 1.00000 0.00000             
N     core -0.352266 2.1236237 7.2482780 -0.7875000 1.00000 0.00000             
N     core -3.318968 12.983865 2.0959178 -0.7875000 1.00000 0.00000             
N     core 0.9111572 4.0854547 2.5574830 -0.7875000 1.00000 0.00000             
N     core 11.428769 5.3836567 7.7270568 -0.7875000 1.00000 0.00000             
N     core 1.3705265 6.9030650 6.6027364 -0.7875000 1.00000 0.00000             
N     core -5.843228 10.125459 4.9674625 -0.7875000 1.00000 0.00000             
Si    core 8.5167379 8.7319213 5.2101689 1.05000000 1.00000 0.00000             
Si    core 8.8890653 2.4612094 3.6545588 1.05000000 1.00000 0.00000             
Si    core 7.9475918 9.5810430 10.789701 1.05000000 1.00000 0.00000             
Si    core 3.8186755 0.3305836 5.2598410 1.05000000 1.00000 0.00000             
Si    core 11.994153 1.3183407 9.1717449 1.05000000 1.00000 0.00000             
Si    core 5.4449674 5.2806629 3.8308044 1.05000000 1.00000 0.00000             
Si    core 4.0793680 2.5291166 3.6508444 1.05000000 1.00000 0.00000             
Si    core 13.469579 1.0228967 3.9841268 1.05000000 1.00000 0.00000             
Si    core 2.3387882 0.6569530 8.7210024 1.05000000 1.00000 0.00000             
Si    core -3.178701 6.4262180 8.7638523 1.05000000 1.00000 0.00000             
Si    core 3.3683958 6.0854794 0.5412127 1.05000000 1.00000 0.00000             
Si    core 6.3778109 5.2490885 0.7850521 1.05000000 1.00000 0.00000             
Si    core 2.3186047 10.922453 8.2291806 1.05000000 1.00000 0.00000             
Si    core 10.418041 4.3514986 1.8304119 1.05000000 1.00000 0.00000             
Si    core 3.2025916 0.4716669 1.5792044 1.05000000 1.00000 0.00000             
Si    core 4.7522331 5.8874779 7.7095272 1.05000000 1.00000 0.00000             
Si    core 8.1288290 12.069907 7.0964683 1.05000000 1.00000 0.00000             
Si    core -7.124110 13.427450 4.4108241 1.05000000 1.00000 0.00000             
Si    core 3.9541256 7.8406110 3.0547704 1.05000000 1.00000 0.00000             
Si    core -5.767277 11.471383 0.8031828 1.05000000 1.00000 0.00000             
Si    core 13.054100 3.8603171 10.211130 1.05000000 1.00000 0.00000             
Si    core 11.793808 1.9411666 6.1987546 1.05000000 1.00000 0.00000             
Si    core -1.333741 12.207661 5.0883234 1.05000000 1.00000 0.00000             
Si    core -2.201538 9.0999824 0.4380504 1.05000000 1.00000 0.00000             
Si    core 13.133013 3.8343732 4.2854387 1.05000000 1.00000 0.00000             
Si    core 8.3263198 8.7426767 8.0776994 1.05000000 1.00000 0.00000             
Si    core 11.622590 6.5523232 3.3482808 1.05000000 1.00000 0.00000             
Si    core 0.0509709 3.8104860 0.9593169 1.05000000 1.00000 0.00000             
Si    core 12.869496 4.6323045 7.1291374 1.05000000 1.00000 0.00000             
Si    core 4.0146311 12.460911 5.6062346 1.05000000 1.00000 0.00000             
Si    core 4.0870123 10.307172 2.2315979 1.05000000 1.00000 0.00000             
Si    core 1.4705240 12.739971 3.7123101 1.05000000 1.00000 0.00000             
Si    core 7.8078702 9.5852312 2.3255554 1.05000000 1.00000 0.00000             
Si    core -3.504784 6.4402124 0.3881103 1.05000000 1.00000 0.00000             
Si    core -2.774350 9.0998799 4.6186264 1.05000000 1.00000 0.00000             
Si    core 8.6837909 0.9158645 5.7092292 1.05000000 1.00000 0.00000             
Si    core -0.546517 11.421087 2.1553188 1.05000000 1.00000 0.00000             
Si    core 2.8467010 8.1056970 9.4572554 1.05000000 1.00000 0.00000             
Si    core -0.015882 12.724909 8.0009903 1.05000000 1.00000 0.00000             
Si    core 8.4749748 7.0707274 3.0945763 1.05000000 1.00000 0.00000             
Si    core -0.331902 7.1226200 7.2722684 1.05000000 1.00000 0.00000             
Si    core 5.8440095 0.1469208 2.9954841 1.05000000 1.00000 0.00000             
Si    core 5.5515223 7.8940234 5.4738152 1.05000000 1.00000 0.00000             
Si    core 1.3898441 9.5714269 0.6283783 1.05000000 1.00000 0.00000             
Si    core 0.1975510 2.7378762 5.6759343 1.05000000 1.00000 0.00000             
Si    core 5.5474557 8.5880088 9.2856734 1.05000000 1.00000 0.00000             
Si    core 0.7397309 0.8059447 0.1171270 1.05000000 1.00000 0.00000             
Si    core 6.5573387 2.9872351 1.9409939 1.05000000 1.00000 0.00000             
Si    core 6.3949836 1.3725113 8.0083828 1.05000000 1.00000 0.00000             
Si    core 3.7811851 10.824430 10.652192 1.05000000 1.00000 0.00000             
Si    core 9.2435199 5.7604216 10.701195 1.05000000 1.00000 0.00000             
Si    core 3.6737970 13.178298 1.7925529 1.05000000 1.00000 0.00000             
Si    core 4.0586671 3.0492365 0.5166330 1.05000000 1.00000 0.00000             
Si    core -3.141189 11.233472 2.5332398 1.05000000 1.00000 0.00000             
Si    core 6.1702656 11.384660 9.0590812 1.05000000 1.00000 0.00000             
Si    core -4.601849 8.0336052 6.8730916 1.05000000 1.00000 0.00000             
Si    core -2.228281 9.8485289 7.3252370 1.05000000 1.00000 0.00000             
Si    core 5.6278417 3.5364880 9.7762969 1.05000000 1.00000 0.00000             
Si    core 1.1880015 2.3588325 2.8008311 1.05000000 1.00000 0.00000             
Si    core 5.9192672 7.9695337 0.9378983 1.05000000 1.00000 0.00000             
Si    core 0.1955135 5.1716021 3.8628695 1.05000000 1.00000 0.00000             
Si    core 6.6060160 12.298036 2.1895362 1.05000000 1.00000 0.00000             
Si    core -4.875697 11.467745 5.2777576 1.05000000 1.00000 0.00000             
Si    core -3.244767 12.486622 7.8675888 1.05000000 1.00000 0.00000             
Si    core 9.3916319 1.7845626 8.0950247 1.05000000 1.00000 0.00000             
Si    core 6.6193075 3.1663676 5.7785216 1.05000000 1.00000 0.00000             
Si    core 2.0857635 10.358802 4.2890306 1.05000000 1.00000 0.00000             
Si    core 3.8499657 2.9056121 6.8453880 1.05000000 1.00000 0.00000             
Si    core 8.3922062 0.7297778 1.3160703 1.05000000 1.00000 0.00000             
Si    core 4.6223344 10.155610 6.7773298 1.05000000 1.00000 0.00000             
Si    core 7.5027292 5.8629573 5.8811269 1.05000000 1.00000 0.00000             
Si    core 6.7193535 10.882831 4.8516332 1.05000000 1.00000 0.00000             
Si    core 7.2406015 6.1044250 9.2170549 1.05000000 1.00000 0.00000             
Si    core 0.1659092 9.9804462 6.5162194 1.05000000 1.00000 0.00000             
Si    core 14.280710 0.8402267 8.0076467 1.05000000 1.00000 0.00000             
Si    core 1.8232358 13.203786 10.225114 1.05000000 1.00000 0.00000             
Si    core 10.197654 4.9709791 4.8207288 1.05000000 1.00000 0.00000             
Si    core -0.096063 8.6539289 9.3881814 1.05000000 1.00000 0.00000             
Si    core -5.040172 9.6391124 3.4037852 1.05000000 1.00000 0.00000             
Si    core 0.0774249 8.1548940 3.2682961 1.05000000 1.00000 0.00000             
Si    core -3.503243 11.078680 10.134855 1.05000000 1.00000 0.00000             
Si    core 2.3432383 3.0878206 9.4429959 1.05000000 1.00000 0.00000             
Si    core -0.701268 11.421233 10.570799 1.05000000 1.00000 0.00000             
Si    core -0.446658 6.7512436 1.1982834 1.05000000 1.00000 0.00000             
Si    core 10.677561 8.4319357 10.091504 1.05000000 1.00000 0.00000             
Si    core 2.5879865 4.9668414 2.9207671 1.05000000 1.00000 0.00000             
Si    core 2.5291593 8.2415888 6.4628698 1.05000000 1.00000 0.00000             
Si    core 10.278743 2.6999916 11.182299 1.05000000 1.00000 0.00000             
Si    core 2.0367635 5.3047569 6.2373366 1.05000000 1.00000 0.00000             
Si    core 5.0131854 0.4546082 10.413820 1.05000000 1.00000 0.00000             
Si    core -0.189910 3.6835472 8.0830082 1.05000000 1.00000 0.00000             
Si    core 9.7905151 4.9675043 7.7504841 1.05000000 1.00000 0.00000             
Si    core -6.363851 11.176797 9.1371190 1.05000000 1.00000 0.00000             
Si    core 0.8544561 5.7364646 9.9853213 1.05000000 1.00000 0.00000             
Si    core 12.927090 2.4178975 1.4683086 1.05000000 1.00000 0.00000             
Si    core 5.6242942 13.437359 11.034128 1.05000000 1.00000 0.00000
end region 1             
